58

C      11.02       9.04       8.99
C      10.39       7.81       8.94
C      10.99      11.50       8.54
C      10.44      10.17       8.41
C       9.29       4.25      10.55
C       9.76       4.41      11.96
C       9.64       5.64      12.63
C      10.20       5.82      13.90
C      10.91       4.79      14.53
C      11.02       3.56      13.86
C      10.46       3.37      12.59
C      11.58       6.07      16.56
C      11.38       4.90      15.93
C       8.64      11.12       7.10
C       9.27      12.35       7.16
C       8.66       8.66       7.58
C       9.21       9.98       7.70
C       6.66       4.35       8.17
C      11.38       4.15       7.92
C       8.99       4.28       5.59
C       9.22       4.21       4.13
C      10.04       3.19       3.60
C      10.40       3.20       2.25
C       9.91       4.19       1.39
C       9.11       5.22       1.91
C       8.76       5.22       3.27
C       5.43       4.32       8.12
C       4.02       4.28       8.06
C       2.82       4.24       8.00
C       1.61       4.19       7.95
F      12.23       9.05       9.60
F      10.95       6.82       9.66
F       8.97       6.68      12.08
F       7.56      11.09       6.53
F       7.17       1.69       6.41
F      10.51       2.20       4.39
H      11.59       7.00      15.99
H      10.59       2.42      12.10
H      11.41       3.99      16.52
H      11.51       2.78      14.31
H      10.04       6.76      14.41
H       8.17       5.93       3.61
H       8.75       5.94       1.29
H      11.01       2.46       1.90
I      12.69      11.88       9.54
I       6.96       8.27       6.57
N       9.29       7.60       8.18
N      10.35      12.56       7.96
O       9.34       3.08       9.96
O       9.01       5.32       9.85
O       7.33       3.25       8.37
O      10.76       3.02       8.14
O      10.71       5.26       7.75
O       7.28       5.48       7.98
O       8.83       5.45       6.18
O       9.14       3.20       6.32
Zn       9.04       2.86       8.14
Zn       9.00       5.65       8.01
