17

C      11.79       8.05      14.72
N      13.60       2.25      18.81
N      12.90       8.61      17.95
C      13.55       0.90      18.86
O      15.36       3.41      21.10
O      14.69       5.17      18.36
O      14.70       6.59      16.68
C      13.07       9.77      18.03
O      13.62       2.56      21.35
C      14.69       2.86      21.97
C      15.39       5.94      17.55
O      11.75       4.10      20.14
O      12.81       8.24      15.47
O      11.18       7.27      15.47
Zn      13.74       3.83      19.80
C      11.07       4.77      19.28
Zn      12.72       6.92      16.99
