112
03/04/2026 07:13, XYZ structure generated by mol3D Class, molSimplify
C 	11.790291	8.045180	14.722178
O 	12.805539	8.235711	15.468006
O 	11.182266	7.269273	15.472855
Zn 	12.724424	6.921208	16.988155
N 	12.900784	8.612097	17.947787
O 	14.704652	6.593832	16.684296
C 	13.074878	9.771931	18.033720
C 	15.388210	5.936867	17.548147
O 	14.692983	5.174704	18.360156
Zn 	13.744884	3.828407	19.799414
N 	13.601414	2.251264	18.808298
O 	15.361157	3.410534	21.100684
O 	13.623425	2.563111	21.348689
O 	11.751802	4.104667	20.139015
C 	13.553954	0.896838	18.863515
C 	14.687290	2.863192	21.971227
C 	11.069162	4.772810	19.276440
C 	12.049064	7.575055	13.349910
C 	12.352457	6.921215	12.354436
C 	12.750606	5.957265	11.265278
C 	13.356286	6.295839	9.976938
C 	13.878823	4.996642	11.435748
C 	11.953236	5.041015	10.697267
C 	14.435238	5.276564	10.108271
C 	12.450533	5.252146	9.322831
H 	13.510764	7.269342	9.657800
C 	12.974544	3.956184	10.785583
H 	14.466824	4.902355	12.316872
H 	11.001615	4.925470	10.896520
C 	13.509788	4.239951	9.467341
H 	15.478712	5.387199	9.873531
H 	11.857553	5.340858	8.441699
H 	12.813569	2.981507	11.108995
C 	13.870373	3.226142	8.482401
C 	14.160151	2.388797	7.665601
C 	14.410441	1.527936	6.542003
O 	15.084309	2.075278	5.671459
O 	13.346576	1.227855	5.919464
C 	14.437000	3.724053	23.094826
C 	14.147222	4.561397	23.911626
C 	13.786636	5.575206	24.896566
C 	14.712087	6.611820	25.537496
C 	12.727382	6.587401	24.752056
C 	13.251393	5.291440	26.214808
C 	13.633134	7.631095	25.406162
C 	14.155672	6.331897	26.864973
H 	15.755561	6.722455	25.302756
C 	12.230084	6.376271	26.126491
H 	12.134402	6.676113	23.870924
H 	13.090418	4.316762	26.538220
C 	13.027455	7.292521	26.694503
H 	13.787613	8.604598	25.087024
H 	14.743673	6.237611	27.746097
H 	11.278464	6.260726	26.325744
C 	12.629305	8.256471	27.783661
C 	12.325913	8.910311	28.779135
C 	12.067139	9.380435	30.151402
C 	13.260960	11.139658	18.120174
C 	14.184479	11.701335	19.044624
C 	12.436237	12.025698	17.513767
C 	14.300946	13.058118	19.349328
O 	15.008006	10.953346	19.722962
C 	12.563256	13.385777	17.811069
O 	11.481131	11.629210	16.623431
C 	13.491388	13.923473	18.736263
O 	15.252292	13.482344	20.244431
H 	14.848550	10.025921	19.498517
O 	11.739196	14.154652	17.149332
H 	11.456589	10.680157	16.496777
C 	13.709149	15.261671	18.863515
H 	15.245532	14.345657	20.378607
H 	11.882455	15.080369	17.411514
N 	13.756609	16.616098	18.808298
C 	13.336193	-0.441360	18.736263
C 	14.145751	-1.306716	19.349328
C 	12.408061	-0.979057	17.811069
C 	14.029284	-2.663499	19.044624
O 	15.097097	-0.882490	20.244431
C 	12.281043	-2.339135	17.513767
O 	11.584001	-0.210181	17.149332
C 	13.105765	-3.225176	18.120174
O 	14.852811	-3.411488	19.722962
H 	15.090337	-0.019177	20.378607
O 	11.325936	-2.735623	16.623431
H 	11.727260	0.715535	17.411514
C 	12.919683	-4.592903	18.033720
H 	14.693355	-4.338913	19.498517
H 	11.301394	-3.684676	16.496777
N 	12.745589	-5.752737	17.947787
C 	16.885686	5.952958	17.605602
C 	18.096848	5.880568	17.759659
C 	19.539763	5.755259	18.030507
C 	20.065928	4.906985	18.842127
H 	20.203073	6.385541	17.564074
C 	21.526601	4.778596	19.114765
H 	19.365531	4.292795	19.287557
C 	22.758967	4.767058	19.204864
C 	24.025759	4.772810	19.276440
O 	24.741355	5.531920	18.469897
O 	24.708399	4.104667	20.139015
C 	9.802369	4.767058	19.204864
O 	11.784758	5.531920	18.469897
C 	8.570004	4.778596	19.114765
C 	7.109331	4.906985	18.842127
C 	6.583166	5.755259	18.030507
H 	6.408934	4.292795	19.287557
C 	5.140250	5.880568	17.759659
H 	7.246476	6.385541	17.564074
C 	3.929089	5.952958	17.605602
C 	2.431612	5.936867	17.548147
O 	1.736386	5.174704	18.360156
O 	1.748055	6.593832	16.684296
