235
03/04/2026 07:14, XYZ structure generated by mol3D Class, molSimplify
C 	6.589936	20.563308	16.938789
O 	5.990862	20.415610	15.813782
O 	6.092688	21.546266	17.644900
Zn 	4.835326	21.993419	16.305286
Zn 	4.424729	21.933997	16.145073
O 	6.202765	22.633353	14.922508
O 	4.067714	23.429939	16.549127
O 	3.641242	21.674856	18.138476
O 	3.608324	20.149053	16.113277
O 	3.525949	21.956711	14.460868
C 	6.759606	23.853869	14.881793
Zn 	2.482744	23.144000	16.501216
Zn 	4.515601	24.968859	15.888253
C 	2.845613	22.519807	18.843552
C 	2.304535	20.231532	16.311867
C 	2.602120	22.754951	13.924532
O 	6.177255	24.916782	15.379864
O 	1.796925	21.426416	16.449566
O 	2.128079	23.425684	18.158778
O 	1.940825	23.574909	14.750310
C 	3.376730	26.404323	15.768377
O 	3.520425	25.571143	14.727530
O 	4.109009	26.224046	16.882113
C 	2.401360	27.448247	15.700822
C 	2.832486	22.490299	20.288117
C 	3.661577	21.603655	21.031806
C 	2.054210	23.407025	21.043133
C 	3.720179	21.653762	22.448089
F 	4.443570	20.692295	20.398542
C 	2.126733	23.453259	22.456392
F 	1.227575	24.286360	20.421812
C 	2.963638	22.585540	23.189987
H 	4.330304	20.995392	22.941876
H 	1.564755	24.149193	22.954071
N 	3.036761	22.649699	24.665816
C 	4.251121	22.781734	25.309582
C 	1.885545	22.592140	25.423608
C 	4.332664	22.862206	26.733950
O 	5.357242	22.868738	24.598947
C 	1.927531	22.683979	26.846753
O 	0.722909	22.422121	24.826869
C 	5.564033	22.992084	27.395156
C 	3.160738	22.818675	27.512937
C 	0.756388	22.642912	27.616911
C 	5.637088	23.079668	28.791582
H 	6.438985	23.024105	26.862498
C 	3.221055	22.909874	28.953167
C 	0.800193	22.732466	29.013232
H 	-0.158950	22.549380	27.164865
C 	4.477885	23.044757	29.609183
H 	6.629404	23.174730	29.200789
C 	2.022938	22.865651	29.720771
H 	-0.099731	22.697204	29.490623
C 	4.536215	23.139774	31.047812
C 	2.081975	22.954942	31.158853
C 	5.756689	23.281695	31.757493
C 	3.337484	23.093076	31.815303
C 	0.922589	22.910080	31.974788
C 	5.797248	23.375124	33.154231
H 	6.657362	23.322875	31.282958
C 	3.394742	23.184703	33.256088
C 	0.993138	22.993538	33.371148
H 	-0.012023	22.812855	31.579709
C 	4.625108	23.328350	33.923851
H 	6.765061	23.480130	33.630796
C 	2.221968	23.131685	34.034206
H 	0.066928	22.950240	33.931411
C 	4.663076	23.420910	35.347792
C 	2.299590	23.207690	35.459590
N 	3.510662	23.348817	36.106323
O 	5.824000	23.600473	35.945102
O 	1.194174	23.102240	36.168207
C 	3.585991	23.376945	37.585218
C 	2.823191	24.274891	38.370085
C 	4.441868	22.503395	38.279611
C 	2.930138	24.312207	39.791702
H 	2.153261	24.967314	37.875822
C 	4.565368	22.536316	39.685701
H 	5.029188	21.782338	37.724010
C 	3.820074	23.451674	40.489721
F 	2.248055	25.124030	40.410111
F 	5.385120	21.706551	40.218564
C 	4.021474	23.502372	41.926487
O 	3.360179	24.322330	42.752265
O 	4.945303	22.704132	42.462823
C 	2.400720	22.704253	12.487766
C 	1.510784	23.564786	11.789747
C 	3.146014	21.788895	11.683746
C 	1.403837	23.527470	10.368130
F 	0.828701	24.376609	12.408156
C 	3.022514	21.755974	10.277656
F 	3.965766	20.959130	12.216609
C 	2.166637	22.629524	9.583263
H 	0.733907	24.219893	9.873867
H 	3.609834	21.034917	9.722055
N 	2.091308	22.601396	8.104368
C 	3.243722	22.673489	7.345837
C 	0.880236	22.460269	7.457635
C 	3.205754	22.580930	5.921895
O 	4.404646	22.853053	7.943147
C 	0.802614	22.384264	6.032251
O 	-0.225180	22.354819	8.166252
C 	4.377894	22.627703	5.152276
C 	1.975388	22.437283	5.254133
C 	-0.426216	22.246117	5.369193
C 	4.337335	22.534274	3.755538
H 	5.345707	22.732709	5.628841
C 	1.918130	22.345655	3.813348
C 	-0.496764	22.162659	3.972833
H 	-1.352426	22.202819	5.929456
C 	3.116861	22.392353	3.045857
H 	5.238008	22.575454	3.281003
C 	0.662621	22.207522	3.156898
H 	-1.431377	22.065434	3.577754
C 	3.058531	22.297336	1.607228
C 	0.603584	22.118230	1.718816
C 	4.217734	22.332247	0.789627
C 	1.801701	22.162453	0.951212
C 	-0.619161	21.985045	1.011277
C 	4.144679	22.244663	-0.606800
H 	5.210050	22.427309	1.198834
C 	1.741384	22.071254	-0.489018
C 	-0.662966	21.895491	-0.385044
H 	-1.519085	21.949783	1.488668
C 	2.913310	22.114786	-1.268006
H 	5.019631	22.276684	-1.139457
C 	0.508177	21.936558	-1.155202
H 	-1.578304	21.801959	-0.837090
C 	2.831767	22.034313	-2.692373
C 	0.466191	21.844720	-2.578347
N 	1.617407	21.902278	-3.336139
O 	3.937888	22.121317	-3.403008
O 	-0.696445	21.674700	-3.175086
C 	1.544284	21.838119	-4.811968
C 	2.300825	20.906341	-5.553866
C 	0.707379	22.705838	-5.545563
C 	2.242223	20.856235	-6.970149
H 	2.910950	20.247971	-5.060079
C 	0.634856	22.659604	-6.958822
H 	0.145401	23.401772	-5.047884
C 	1.413132	21.742878	-7.713839
F 	3.024216	19.944874	-7.603413
F 	-0.191779	23.538939	-7.580143
C 	1.426259	21.772386	-9.158403
O 	2.221888	20.927435	-9.863479
O 	0.708725	22.678263	-9.843177
C 	7.644049	19.645572	17.285005
C 	8.465422	18.757563	17.322513
C 	9.327995	17.636222	17.194194
C 	9.990216	16.635858	17.030537
C 	10.686115	15.410455	16.855651
C 	11.197194	14.314811	16.796315
C 	11.626234	13.164718	16.858857
O 	11.092095	12.372377	17.748731
O 	12.627089	12.743224	16.104358
C 	8.166809	24.096675	14.531041
C 	9.131189	23.889041	15.543311
C 	8.407808	25.061829	13.540457
C 	10.279862	24.723082	15.615094
O 	8.839627	22.950152	16.519725
C 	9.531992	25.886233	13.605534
F 	7.455201	25.327819	12.608804
C 	10.445046	25.768079	14.662804
O 	11.168309	24.530300	16.660155
H 	9.561799	22.920244	17.195637
F 	9.662086	26.890850	12.700469
C 	11.505405	26.806855	14.796037
H 	11.976636	25.086887	16.537675
C 	11.395842	27.804324	15.709769
O 	12.578020	26.764503	13.936391
C 	12.432082	28.873637	15.850521
O 	10.275993	27.880822	16.507195
H 	12.321234	27.273087	13.192491
C 	12.083170	30.249648	15.779830
C 	13.745111	28.518196	16.189596
H 	10.502047	27.427934	17.296024
C 	13.039447	31.245934	16.131576
O 	10.820838	30.663157	15.385884
C 	14.693910	29.493183	16.504268
F 	14.061076	27.333010	16.275814
C 	14.352209	30.868783	16.528574
O 	12.715741	32.593610	16.096280
H 	10.383640	29.968374	14.938595
F 	15.823029	29.114810	16.811100
C 	15.286819	31.823374	17.018622
H 	11.825566	32.709734	15.836016
O 	14.972441	33.093253	17.153228
O 	16.471102	31.436150	17.424427
C 	1.470873	19.158527	16.433031
C 	0.154198	19.345645	16.965040
C 	1.838110	17.845018	16.022033
C 	-0.755227	18.301557	16.985524
N 	-0.253763	20.553549	17.624823
C 	0.878291	16.793888	16.034676
N 	3.145553	17.585154	15.497318
C 	-0.436071	17.037795	16.497730
H 	-1.665189	18.465006	17.429495
O 	-1.354526	21.146022	17.263401
O 	0.297152	20.877789	18.757166
N 	1.238924	15.489370	15.553714
O 	4.155303	17.455660	16.307429
O 	3.296870	17.317455	14.233520
C 	-1.462925	15.963448	16.630627
O 	0.471136	14.866413	14.707943
O 	2.346695	14.927592	15.940897
C 	-2.772758	16.216761	16.402341
F 	-1.103731	14.818600	17.092001
C 	-3.841640	15.245152	16.719603
F 	-3.153528	17.392131	15.829631
C 	-3.853010	14.012348	16.068180
C 	-4.899948	15.587815	17.588126
C 	-4.938958	13.142737	16.196751
H 	-3.123683	13.784235	15.448259
C 	-5.988765	14.704077	17.760996
N 	-4.837918	16.797375	18.354820
C 	-6.027344	13.487110	17.042746
N 	-4.966145	11.972357	15.365975
N 	-7.061353	15.058266	18.649260
O 	-4.828195	16.740105	19.654460
O 	-4.956758	17.951415	17.767226
C 	-7.237160	12.633178	17.068214
O 	-3.905017	11.225215	15.271958
O 	-5.922219	11.820754	14.496262
O 	-7.624397	16.228327	18.565968
O 	-7.473330	14.214897	19.550741
O 	-8.467525	13.144516	17.100878
O 	-7.142372	11.324651	16.881665
C 	1.547412	28.292825	15.638518
C 	0.515763	29.248473	15.587134
C 	-0.395001	30.033099	15.597579
C 	-1.496338	30.898948	15.716405
C 	-2.463401	31.570479	15.955402
C 	-3.551725	32.231276	16.405799
O 	-4.160472	33.154195	15.674486
O 	-3.941886	31.963847	17.622680
