24

C       6.59      20.56      16.94
C       6.76      23.85      14.88
C       2.30      20.23      16.31
C       2.85      22.52      18.84
O       5.99      20.42      15.81
O       6.09      21.55      17.64
O       6.20      22.63      14.92
O       4.07      23.43      16.55
O       3.61      20.15      16.11
O       1.80      21.43      16.45
C       2.40      27.45      15.70
O       3.64      21.67      18.14
O       2.13      23.43      18.16
O       1.94      23.57      14.75
O       3.53      21.96      14.46
C       3.38      26.40      15.77
C       2.60      22.75      13.92
O       6.18      24.92      15.38
O       3.52      25.57      14.73
O       4.11      26.22      16.88
Zn       4.84      21.99      16.31
Zn       4.42      21.93      16.15
Zn       2.48      23.14      16.50
Zn       4.52      24.97      15.89
