24

C      11.63      13.16      16.86
C      12.25       9.57      20.46
C      11.04       8.34      17.02
C      12.99      10.94      14.13
C      15.45       8.75      16.41
C      16.00      12.63      17.07
C      17.21      13.49      17.04
O      11.09      12.37      17.75
O      12.63      12.74      16.10
O      13.27      10.59      17.74
O      14.77      13.14      17.10
O      10.73       9.61      17.15
O      14.84       9.67      15.67
O      13.29       8.98      19.92
O      11.44      10.31      19.75
O      14.06      11.66      14.49
O      12.33      10.27      15.07
O      15.06       8.48      17.62
O      16.10      11.32      16.88
O      12.23       7.96      17.42
Zn      11.68      10.70      18.02
Zn      13.48       9.07      18.16
Zn      13.43      10.85      16.25
Zn      14.43      11.61      16.58
