235
03/04/2026 07:14, XYZ structure generated by mol3D Class, molSimplify
C 	11.626234	13.164718	16.858857
O 	11.092095	12.372377	17.748731
O 	12.627089	12.743224	16.104358
Zn 	11.678357	10.696271	18.024466
Zn 	13.426602	10.848490	16.247462
Zn 	14.429451	11.612034	16.581708
O 	13.265920	10.588658	17.739267
O 	10.729210	9.613295	17.153228
O 	11.443933	10.312657	19.745145
O 	14.838072	9.674237	15.674486
O 	14.063061	11.658568	14.489276
O 	12.331231	10.274297	15.073452
C 	16.004615	12.633178	17.068214
O 	14.774251	13.144516	17.100878
O 	16.099404	11.324651	16.881665
Zn 	13.477790	9.072273	18.159674
C 	11.043588	8.343417	17.018622
C 	12.251887	9.570025	20.464417
C 	15.446820	8.751319	16.405799
C 	12.988074	10.936664	14.133441
C 	17.214431	13.487110	17.042746
O 	13.290438	8.984186	19.918071
O 	15.056658	8.483890	17.622680
O 	12.227870	7.956193	17.424427
C 	12.017279	9.447056	21.815875
C 	12.985563	8.856949	22.656970
C 	10.826320	9.969436	22.371308
C 	12.801040	8.878252	24.024221
F 	14.147087	8.337905	22.179887
C 	10.646966	9.958008	23.735479
F 	9.840662	10.516587	21.612049
C 	11.647714	9.450891	24.555026
H 	13.579493	8.501723	24.677647
H 	9.757057	10.402587	24.164679
N 	11.555448	9.642864	25.949342
C 	11.488726	8.552030	26.761194
C 	11.603493	10.917664	26.433272
C 	11.513943	8.720220	28.140187
O 	11.425120	7.340806	26.241356
C 	11.599220	11.133391	27.804415
O 	11.703523	11.941911	25.605649
C 	11.578546	10.023670	28.670040
C 	11.490168	7.617697	28.990900
C 	11.654347	12.426663	28.319301
C 	11.655138	10.215455	30.061695
C 	11.590341	7.794503	30.356233
H 	11.415709	6.607844	28.605495
C 	11.695088	12.626886	29.684019
H 	11.681913	13.294377	27.669688
C 	11.732028	9.084724	30.914704
C 	11.685385	11.534645	30.582139
H 	11.541265	6.894746	30.945871
H 	11.787181	13.653484	29.995694
C 	11.976234	9.277404	32.288018
C 	11.754104	11.720113	31.975993
C 	11.967937	10.595119	32.813055
C 	12.276336	8.197608	33.150087
C 	11.643662	12.999938	32.563740
C 	12.206112	10.793613	34.186005
C 	12.540413	8.406818	34.488664
H 	12.367820	7.177757	32.817185
C 	11.853400	13.181406	33.916346
H 	11.383496	13.886088	32.009259
C 	12.512575	9.697028	35.013743
C 	12.166286	12.092637	34.728151
H 	12.781399	7.549293	35.106569
H 	11.788572	14.185812	34.317152
C 	12.818970	9.924612	36.349716
C 	12.451110	12.270896	36.077523
N 	12.789791	11.195996	36.843740
O 	13.174695	8.916973	37.125244
O 	12.405666	13.477448	36.609700
C 	13.152828	11.404929	38.193463
C 	12.373791	10.843848	39.198803
C 	14.321077	12.105375	38.488743
C 	12.781186	10.939547	40.511520
H 	11.467128	10.303018	38.953632
C 	14.731561	12.231070	39.802329
H 	14.923669	12.528555	37.693978
C 	13.977290	11.625437	40.827929
F 	11.999488	10.353609	41.456446
F 	15.883655	12.905989	40.051700
C 	14.407428	11.684085	42.135396
O 	15.482415	12.405988	42.491231
O 	13.750585	11.021718	43.075407
C 	12.557936	10.878016	12.825974
C 	11.361832	10.192127	12.509565
C 	13.312207	11.483649	11.800374
C 	10.954437	10.096427	11.196848
F 	10.580134	9.606188	13.454491
C 	12.901723	11.357954	10.486788
F 	14.464301	12.158568	12.049745
C 	11.733474	10.657508	10.191508
H 	10.047775	9.555597	10.951677
H 	13.504315	11.781134	9.692023
N 	11.370437	10.448575	8.841785
C 	11.031756	11.523475	8.075568
C 	11.399616	9.177192	8.347761
C 	10.746932	11.345216	6.726196
O 	10.986312	12.730027	8.607745
C 	11.093221	8.949607	7.011788
O 	11.755341	8.169552	9.123289
C 	10.434046	12.433985	5.914391
C 	10.786758	10.046192	6.184050
C 	11.121059	7.659397	6.486709
C 	10.224308	12.252518	4.561785
H 	10.369218	13.438391	6.315197
C 	10.548583	9.847698	4.811100
C 	10.856982	7.450187	5.148131
H 	11.362045	6.801872	7.104614
C 	10.334750	10.972692	3.974037
H 	9.964142	13.138667	4.007304
C 	10.556880	8.529983	4.286063
H 	10.948466	6.430336	4.815230
C 	10.266031	10.787224	2.580184
C 	10.312674	8.337303	2.912749
C 	10.235784	9.468034	2.059740
C 	10.275734	11.879465	1.682063
C 	10.170987	7.047082	2.354278
C 	10.159192	9.276250	0.668085
C 	10.234993	11.679242	0.317346
H 	10.367827	12.906063	1.993739
C 	10.070814	6.870276	0.988945
H 	10.121911	6.147325	2.943916
C 	10.179866	10.385970	-0.197540
C 	10.094589	7.972799	0.138232
H 	10.262559	12.546956	-0.332267
H 	9.996355	5.860424	0.603540
C 	10.184139	10.170243	-1.568684
C 	10.069372	7.804609	-1.240761
N 	10.136094	8.895443	-2.052613
O 	10.284169	11.194490	-2.396307
O 	10.005766	6.593385	-1.760599
C 	10.228360	8.703470	-3.446929
C 	11.381686	8.130831	-3.977734
C 	9.227612	9.210587	-4.266476
C 	11.566209	8.109528	-5.344985
H 	12.160139	7.754302	-3.324308
C 	9.406966	9.222015	-5.630647
H 	8.337703	9.655166	-3.837276
C 	10.597925	8.699635	-6.186080
F 	12.727733	7.590484	-5.822068
F 	8.421308	9.769166	-6.389906
C 	10.832533	8.822604	-7.537538
O 	11.871084	8.236765	-8.083884
O 	10.024579	9.565236	-8.256810
C 	11.197194	14.314811	16.796315
C 	10.686115	15.410455	16.855651
C 	9.990216	16.635858	17.030537
C 	9.327995	17.636222	17.194194
C 	8.465422	18.757563	17.322513
C 	7.644049	19.645572	17.285005
C 	6.589936	20.563308	16.938789
O 	5.990862	20.415610	15.813782
O 	6.092688	21.546266	17.644900
C 	10.108978	7.388825	16.528574
C 	8.796216	7.765977	16.131576
C 	10.450679	6.013225	16.504268
C 	7.839938	6.769690	15.779830
O 	8.472510	9.113653	16.096280
C 	9.501880	5.038239	16.189596
F 	11.579798	5.634853	16.811100
C 	8.188850	5.393679	15.850521
O 	6.577607	7.183200	15.385884
H 	7.582335	9.229776	15.836016
F 	9.817845	3.853053	16.275814
C 	7.152611	4.324367	15.709769
H 	6.140409	6.488417	14.938595
C 	7.262173	3.326898	14.796037
O 	6.032762	4.400864	16.507195
C 	6.201815	2.288122	14.662804
O 	8.334789	3.284546	13.936391
H 	6.258815	3.947977	17.296024
C 	6.036631	1.243124	15.615094
C 	5.288761	2.406276	13.605534
H 	8.078003	3.793130	13.192491
C 	4.887958	0.409084	15.543311
O 	6.925077	1.050342	16.660155
C 	4.164577	1.581871	13.540457
F 	5.418855	3.410892	12.700469
C 	3.923578	0.616718	14.531041
O 	4.596395	-0.529806	16.519725
H 	7.733404	1.606929	16.537675
F 	3.211970	1.847862	12.608804
C 	2.516374	0.373911	14.881793
H 	5.318568	-0.559713	17.195637
O 	1.959534	-0.846604	14.922508
O 	1.934023	1.436824	15.379864
C 	18.302818	13.142737	16.196751
C 	17.253011	14.704077	17.760996
C 	19.388766	14.012348	16.068180
N 	18.275631	11.972357	15.365975
C 	18.341828	15.587815	17.588126
N 	16.180423	15.058266	18.649260
C 	19.400135	15.245152	16.719603
H 	20.118092	13.784235	15.448259
O 	19.336759	11.225215	15.271958
O 	17.319556	11.820754	14.496262
N 	18.403858	16.797375	18.354820
O 	15.617379	16.228327	18.565968
O 	15.768446	14.214897	19.550741
C 	20.469018	16.216761	16.402341
O 	18.413581	16.740105	19.654460
O 	18.285017	17.951415	17.767226
C 	21.778851	15.963448	16.630627
F 	20.088247	17.392131	15.829631
C 	22.805704	17.037795	16.497730
F 	22.138044	14.818600	17.092001
C 	22.486548	18.301557	16.985524
C 	24.120067	16.793888	16.034676
C 	23.395974	19.345645	16.965040
H 	21.576587	18.465006	17.429495
C 	25.079886	17.845018	16.022033
N 	24.480700	15.489370	15.553714
C 	24.712649	19.158527	16.433031
N 	22.988013	20.553549	17.624823
N 	26.387328	17.585154	15.497318
O 	23.712912	14.866413	14.707943
O 	25.588471	14.927592	15.940897
C 	25.546310	20.231532	16.311867
O 	21.887249	21.146022	17.263401
O 	23.538928	20.877789	18.757166
O 	27.397079	17.455660	16.307429
O 	26.538646	17.317455	14.233520
O 	26.850099	20.149053	16.113277
O 	25.038700	21.426416	16.449566
C 	16.535143	8.090522	15.955402
C 	17.502207	7.418991	15.716405
C 	18.603544	6.553142	15.597579
C 	19.514307	5.768515	15.587134
C 	20.545957	4.812867	15.638518
C 	21.399904	3.968289	15.700822
C 	22.375274	2.924365	15.768377
O 	22.518970	2.091186	14.727530
O 	23.107553	2.744088	16.882113
