112
03/04/2026 07:14, XYZ structure generated by mol3D Class, molSimplify
Zn 	2.905817	10.472705	1.404861
O 	4.412371	9.739288	1.144335
N 	5.094074	10.034705	1.080908
O 	2.759106	9.103982	1.798561
C 	4.713648	8.730897	1.934861
H 	5.252968	9.236958	1.712894
C 	6.103365	10.514461	0.423679
C 	2.276733	8.013442	1.083049
C 	7.445320	9.887778	0.539802
N 	8.522759	10.587890	0.372305
Zn 	10.736979	10.218065	0.016896
O 	9.188055	10.929708	0.319141
H 	8.427645	11.604617	0.238733
O 	10.841319	11.596999	-0.268587
C 	8.906617	11.938899	-0.485815
C 	11.338758	12.695983	0.422041
C 	5.333880	8.968307	3.276395
O 	4.663184	7.490587	1.566594
C 	6.718314	8.836389	3.389010
C 	4.572666	9.173903	4.456058
H 	4.025939	6.780468	1.727131
C 	5.941813	11.701665	-0.445670
H 	7.320364	8.711240	2.500073
C 	7.345509	8.895558	4.630132
H 	3.504246	9.238202	4.333543
C 	5.198986	9.256442	5.750035
C 	3.084533	6.730547	1.187888
C 	7.508251	8.445629	0.846761
H 	6.441136	12.584150	-1.234830
H 	5.290692	12.513238	-0.161953
O 	6.556528	11.787407	-1.497184
O 	8.082687	8.041667	1.843101
H 	8.421159	8.778179	4.672750
C 	6.606203	9.096590	5.804393
C 	4.492353	9.483166	6.989892
C 	2.696151	5.520281	0.669550
H 	6.950999	7.744713	0.234022
C 	6.987932	12.141579	-2.053098
C 	7.276433	9.114717	7.031341
C 	5.201446	9.508857	8.251399
C 	3.105231	9.715413	7.007573
O 	1.068271	7.866611	0.460609
H 	1.753516	5.454685	0.134684
C 	3.509072	4.247065	0.814012
C 	8.296932	11.704774	-1.851108
C 	6.331679	11.945000	-3.259580
H 	8.350686	8.974332	7.068066
C 	6.591952	9.294281	8.228373
C 	4.503858	9.813690	9.482425
H 	2.505442	9.711257	6.113276
C 	2.441158	10.022492	8.186024
H 	4.456051	4.313842	1.341007
C 	3.110904	3.033648	0.311280
O 	8.937996	13.178995	-0.100306
C 	9.025529	11.276757	-2.997158
H 	5.286979	12.221359	-3.332455
C 	7.021375	11.474070	-4.378427
H 	7.187776	9.284740	9.125396
H 	1.383976	10.250402	8.138471
H 	2.164251	2.982988	-0.218700
C 	3.912777	1.747031	0.422041
H 	10.076802	11.111694	-2.867993
O 	5.106172	1.885418	1.069365
O 	3.415338	0.648047	-0.268587
H 	9.590232	13.931941	-0.218700
C 	8.403693	11.176799	-4.296346
C 	10.536885	13.982600	0.311280
C 	9.101281	10.871966	-5.527372
C 	10.935053	15.196017	0.814012
C 	6.340994	11.385601	-5.592747
C 	8.392189	10.846275	-6.788879
C 	10.491788	10.657389	-5.550398
O 	12.532153	12.834370	1.069365
H 	11.882032	15.262794	1.341007
C 	10.122132	16.469234	0.669550
H 	5.283812	11.613510	-5.640300
C 	7.005067	11.078521	-6.771199
C 	9.098821	10.619551	-8.028736
H 	11.087612	10.647848	-4.653375
C 	11.176268	10.477825	-6.747430
H 	9.179497	16.403637	0.134684
C 	10.510514	17.679499	1.187888
H 	6.405278	11.074366	-7.665495
C 	10.506038	10.459699	-7.974378
H 	12.250522	10.337441	-6.710706
C 	9.702714	18.962394	1.083049
O 	8.494252	18.815563	0.460609
O 	10.185087	20.052934	1.798561
C 	5.125694	9.913649	10.781614
C 	3.121539	10.110962	9.400344
H 	6.176967	9.748586	10.910779
O 	1.512015	2.230043	-0.100306
C 	1.480636	0.989947	-0.485815
C 	0.870951	0.755822	-1.851108
O 	1.762074	-0.019244	0.319141
C 	1.599548	0.327805	-2.997158
H 	2.650821	0.162742	-2.867993
H 	11.451920	17.729420	1.727131
O 	12.089165	18.439539	1.566594
C 	12.139629	19.679849	1.934861
C 	12.759861	19.917259	3.276395
O 	11.838352	20.688240	1.144335
N 	12.520055	20.983658	1.080908
C 	14.144295	19.785342	3.389010
C 	11.998647	20.122855	4.456058
C 	4.226430	19.844510	4.630132
H 	10.930227	20.187154	4.333543
H 	5.302080	19.727131	4.672750
C 	8.472502	10.537011	-9.322713
C 	11.245344	10.258667	-9.148639
H 	7.404081	10.601310	-9.445229
H 	12.320995	10.141288	-9.106021
