16

Zn       2.91      10.47       1.40
Zn      10.74      10.22       0.02
O       4.41       9.74       1.14
O       9.19      10.93       0.32
H       5.25       9.24       1.71
H       8.43      11.60       0.24
C       7.45       9.89       0.54
C       6.10      10.51       0.42
C       4.71       8.73       1.93
N       8.52      10.59       0.37
N       5.09      10.03       1.08
C       2.28       8.01       1.08
C      11.34      12.70       0.42
O       2.76       9.10       1.80
O      10.84      11.60      -0.27
C       8.91      11.94      -0.49
