24

C      11.79       8.05      14.72
C      13.36       6.30       9.98
C      14.44       5.28      10.11
C      13.51       4.24       9.47
C      13.88       5.00      11.44
C      13.87       3.23       8.48
C      12.05       7.58      13.35
C      12.45       5.25       9.32
C      11.95       5.04      10.70
C      12.75       5.96      11.27
C      12.97       3.96      10.79
C      12.35       6.92      12.35
C      14.16       2.39       7.67
C      14.41       1.53       6.54
H      15.48       5.39       9.87
H      13.51       7.27       9.66
H      14.47       4.90      12.32
H      12.81       2.98      11.11
H      11.00       4.93      10.90
H      11.86       5.34       8.44
O      15.08       2.08       5.67
O      13.35       1.23       5.92
O      12.81       8.24      15.47
O      11.18       7.27      15.47
