18

C       0.26      12.59       3.31
C       0.95      10.37       3.62
C       1.07      11.72       3.92
C       0.48      13.93       3.43
C       0.03       9.80       2.69
C      -0.67      12.05       2.38
C      -0.80      10.69       2.08
C      -0.16       8.44       2.60
H       2.01      13.01       4.95
H       1.62       8.69       4.07
H      -1.78       9.34       1.07
H      -1.35      13.75       1.98
N       0.52      15.28       3.38
N      -0.33       7.28       2.52
O       2.02      12.15       4.82
O       1.77       9.62       4.29
O      -1.75      10.29       1.19
O      -1.49      12.82       1.72
