240

C       5.56      22.99      27.40
C      27.57      22.86      26.73
C      25.17      22.68      26.85
C      27.49      22.78      25.31
C      25.13      22.59      25.42
C      26.96      21.65      22.45
C      25.37      23.45      22.46
C      26.21      22.59      23.19
C      26.40      22.82      27.51
C      26.90      21.60      21.03
C      24.00      22.64      27.62
C      25.30      23.41      21.04
C      12.80       8.88      24.02
C      10.65       9.96      23.74
C      12.99       8.86      22.66
C      10.83       9.97      22.37
C      12.02       9.45      21.82
C      11.65       9.45      24.56
C      11.60      11.13      27.80
C      11.49       8.55      26.76
C      11.60      10.92      26.43
C       6.59      20.56      16.94
C       6.76      23.85      14.88
C       7.64      19.65      17.29
C       8.47      18.76      17.32
C       9.33      17.64      17.19
C       9.99      16.64      17.03
C       9.13      23.89      15.54
C      20.47      16.22      16.40
C      22.49      18.30      16.99
C      22.81      17.04      16.50
C      23.40      19.35      16.97
C      26.07      22.49      20.29
C      24.12      16.79      16.03
C      25.55      20.23      16.31
C      24.71      19.16      16.43
C      25.08      17.85      16.02
C      26.09      22.52      18.84
C      10.69      15.41      16.86
C      11.20      14.31      16.80
C      11.63      13.16      16.86
C      12.25       9.57      20.46
C      11.04       8.34      17.02
C      12.99      10.94      14.13
C      21.78      15.96      16.63
C      15.45       8.75      16.41
C      16.00      12.63      17.07
C      17.21      13.49      17.04
C      18.30      13.14      16.20
C      19.39      14.01      16.07
C      19.40      15.25      16.72
C      18.34      15.59      17.59
C      17.25      14.70      17.76
C      16.54       8.09      15.96
C       3.92       0.62      14.53
C       6.20       2.29      14.66
C       6.04       1.24      15.62
C       7.15       4.32      15.71
C       7.26       3.33      14.80
C       7.84       6.77      15.78
C       8.80       7.77      16.13
C       8.19       5.39      15.85
C      10.11       7.39      16.53
C      10.45       6.01      16.50
C       9.50       5.04      16.19
C      17.50       7.42      15.72
C      18.60       6.55      15.60
C      19.51       5.77      15.59
C      20.55       4.81      15.64
C      21.40       3.97      15.70
C      22.38       2.92      15.77
C      25.64      22.70      12.49
C      25.84      22.75      13.92
C      26.49      22.67       7.35
C      24.65      23.53      10.37
C      24.75      23.56      11.79
C      26.39      21.79      11.68
C      26.26      21.76      10.28
C      25.41      22.63       9.58
C      24.12      22.46       7.46
C      10.95      10.10      11.20
C      12.90      11.36      10.49
C      11.36      10.19      12.51
C      13.31      11.48      11.80
C      12.56      10.88      12.83
C      11.73      10.66      10.19
C      11.03      11.52       8.08
C      11.40       9.18       8.35
C      11.09       8.95       7.01
C       4.16       1.58      13.54
C       5.29       2.41      13.61
C       4.34      22.53       3.76
C       4.38      22.63       5.15
C       4.22      22.33       0.79
C      25.22      22.44       5.25
C      24.04      22.38       6.03
C      26.45      22.58       5.92
C      23.85      22.12       1.72
C      26.36      22.39       3.05
C      26.30      22.30       1.61
C      23.90      22.21       3.16
C      25.04      22.16       0.95
C      25.16      22.35       3.81
C      22.62      21.99       1.01
C      22.82      22.25       5.37
C      22.75      22.16       3.97
C      10.23      11.68       0.32
C      10.16       9.28       0.67
C      10.31       8.34       2.91
C      10.27      10.79       2.58
C      10.33      10.97       3.97
C      10.56       8.53       4.29
C      10.24       9.47       2.06
C      10.55       9.85       4.81
C      10.28      11.88       1.68
C      10.22      12.25       4.56
C      10.43      12.43       5.91
C      10.75      11.35       6.73
C      10.79      10.05       6.18
C      10.09       7.97       0.14
C      11.12       7.66       6.49
C      10.86       7.45       5.15
C      10.17       7.05       2.35
C      10.07       6.87       0.99
F      14.15       8.34      22.18
F       9.84      10.52      21.61
F      20.09      17.39      15.83
F      27.69      20.69      20.40
F      22.14      14.82      17.09
F      11.58       5.63      16.81
F       9.82       3.85      16.28
F      20.23       0.81      20.42
F      27.21      20.96      12.22
F      10.58       9.61      13.45
F      14.46      12.16      12.05
F       5.42       3.41      12.70
F       3.21       1.85      12.61
F      19.83       0.90      12.41
H       6.44      23.02      26.86
H      27.57      21.00      22.94
H      23.08      22.55      27.16
H      11.68      13.29      27.67
H      13.58       8.50      24.68
H       9.76      10.40      24.16
H      20.56       0.67      22.95
H       9.56      22.92      17.20
H      21.58      18.47      17.43
H       7.58       9.23      15.84
H      20.12      13.78      15.45
H       6.26       3.95      17.30
H       6.14       6.49      14.94
H       7.73       1.61      16.54
H      26.85      21.03       9.72
H      10.05       9.56      10.95
H      13.50      11.78       9.69
H       8.08       3.79      13.19
H      11.36       6.80       7.10
H      19.73       0.74       9.87
H       5.21      22.43       1.20
H       5.35      22.73       5.63
H       5.24      22.58       3.28
H      21.81      22.07       3.58
H      21.89      22.20       5.93
H      21.72      21.95       1.49
H      10.37      12.91       1.99
H       9.96      13.14       4.01
H      10.37      13.44       6.32
H      10.00       5.86       0.60
H      10.12       6.15       2.94
H      10.95       6.43       4.82
N      26.28      22.65      24.67
N      11.56       9.64      25.95
N      18.40      16.80      18.35
N      22.99      20.55      17.62
N      26.39      17.59      15.50
N      16.18      15.06      18.65
N      18.28      11.97      15.37
N      24.48      15.49      15.55
N      25.33      22.60       8.10
N      11.37      10.45       8.84
O       5.36      22.87      24.60
O      23.96      22.42      24.83
O      11.70      11.94      25.61
O      11.43       7.34      26.24
O       5.99      20.42      15.81
O       6.09      21.55      17.64
O       6.20      22.63      14.92
O       4.16      17.46      16.31
O       8.84      22.95      16.52
O      21.89      21.15      17.26
O      18.41      16.74      19.65
O      18.29      17.95      17.77
O      15.62      16.23      18.57
O      23.54      20.88      18.76
O      27.31      23.43      16.55
O      26.85      20.15      16.11
O      25.04      21.43      16.45
O      26.54      17.32      14.23
O      26.88      21.67      18.14
O      25.37      23.43      18.16
O      25.18      23.57      14.75
O      26.77      21.96      14.46
O       8.47       9.11      16.10
O      11.09      12.37      17.75
O      12.63      12.74      16.10
O      13.27      10.59      17.74
O      14.77      13.14      17.10
O      10.73       9.61      17.15
O      14.84       9.67      15.67
O      13.29       8.98      19.92
O      11.44      10.31      19.75
O      14.06      11.66      14.49
O      12.33      10.27      15.07
O      15.06       8.48      17.62
O      15.77      14.21      19.55
O      16.10      11.32      16.88
O      19.34      11.23      15.27
O      17.32      11.82      14.50
O      23.71      14.87      14.71
O      25.59      14.93      15.94
O       6.03       4.40      16.51
O       6.58       7.18      15.39
O       6.93       1.05      16.66
O       1.93       1.44      15.38
O      12.23       7.96      17.42
O      22.52       2.09      14.73
O      23.11       2.74      16.88
O      27.65      22.85       7.94
O      23.02      22.35       8.17
O      10.99      12.73       8.61
O      11.76       8.17       9.12
O       8.33       3.28      13.94
Zn       4.84      21.99      16.31
Zn      27.67      21.93      16.15
Zn      25.72      23.14      16.50
Zn      11.68      10.70      18.02
Zn      13.48       9.07      18.16
Zn      13.43      10.85      16.25
Zn      14.43      11.61      16.58
Zn      23.51       1.49      15.89
