58

C      11.79       8.05      14.72
C       0.40       6.30       9.98
C       1.48       5.28      10.11
C       0.55       4.24       9.47
C       0.92       5.00      11.44
C       0.91       3.23       8.48
C      12.05       7.58      13.35
C      12.45       5.25       9.32
C      11.95       5.04      10.70
C      12.75       5.96      11.27
C      12.97       3.96      10.79
C      12.35       6.92      12.35
C       0.26      12.59       3.31
C       0.95      10.37       3.62
C       1.07      11.72       3.92
C       0.48      13.93       3.43
C      12.98       9.80       2.69
C      12.29      12.05       2.38
C      12.16      10.69       2.08
C      12.80       8.44       2.60
C       1.20       2.39       7.67
C       1.45       1.53       6.54
C       2.15       4.60       2.12
C       3.65       4.62       2.18
C       6.31       4.42       2.60
C       4.86       4.55       2.33
C       6.83       3.57       3.41
C       8.29       3.44       3.69
C      10.79       3.44       3.85
C       9.53       3.43       3.78
H       2.52       5.39       9.87
H       0.55       7.27       9.66
H       1.51       4.90      12.32
H      12.81       2.98      11.11
H      11.00       4.93      10.90
H      11.86       5.34       8.44
H       2.01      13.01       4.95
H       1.62       8.69       4.07
H      11.18       9.34       1.07
H      11.61      13.75       1.98
H       6.13       2.96       3.86
H       6.97       5.05       2.13
N       0.37       0.92       3.38
N      12.62       7.28       2.52
O       2.02      12.15       4.82
O       1.77       9.62       4.29
O      11.20      10.29       1.19
O      11.46      12.82       1.72
O       2.13       2.08       5.67
O       1.46       3.84       2.93
O       1.47       5.26       1.26
O       0.39       1.23       5.92
O      11.51       4.20       3.04
O      11.47       2.77       4.71
O      12.53       6.90       0.04
O      10.91       5.93       0.04
Zn       0.51       2.49       4.37
Zn      12.45       5.59       1.56
