58

H       4.50      -0.70       8.14
H       6.62      -1.71       4.33
H      10.44      -2.24       2.50
H      11.47      -1.97       7.07
H       4.51      -0.09      10.45
H       5.66       0.27      12.54
H       9.30      -1.20      10.91
H       5.62      -1.24       6.11
H      10.31      -1.66       9.13
H      11.54      -2.17       4.67
C       7.83      -2.22       1.93
C       7.52      -0.61      11.93
C       8.45      -1.98       3.28
C       5.55      -0.37      10.52
C       6.21      -0.17      11.73
C       8.24      -1.04      10.78
C       7.62      -1.14       9.48
C       6.24      -0.84       9.40
C       8.32      -1.44       8.25
C       7.61      -1.47       6.99
C       6.22      -1.23       7.01
C       5.56      -0.93       8.19
C       9.71      -1.65       8.23
C      10.40      -1.83       7.03
C       9.73      -1.85       5.80
C       8.32      -1.69       5.75
C      10.46      -2.05       4.63
C       9.84      -2.11       3.39
C       7.69      -1.78       4.46
C       8.13      -0.37      13.29
O       7.78      -3.46       1.57
O       7.53      -1.21       1.14
O       8.16       0.87      13.68
O       8.41      -1.38      14.10
H       4.51       0.20      13.62
H       6.17      -4.57      14.01
C       6.66      -2.42      14.32
C       5.32      -1.80      14.20
C       5.16      -0.61      13.33
C       6.73      -3.87      14.63
N       7.74      -1.72      14.15
N       4.31      -2.28      14.86
O       5.78      -0.52      12.28
O      11.20      -2.91       1.84
H      11.10       2.95      15.12
H       8.40       4.09      13.91
H       8.81       1.62      13.56
H       7.15      -4.17       1.73
C       5.40      -2.94       1.08
C      10.56       0.38      14.20
C       6.20      -4.22       1.19
C       9.76       1.67      14.09
C       9.34       4.16      14.45
C      10.15       2.88      14.59
O       4.19      -3.08       0.46
O      11.75       0.52      14.85
O       5.88      -1.84       1.80
O      10.06      -0.72      13.51
