30

C       9.29       4.25      10.55
C       9.76       4.41      11.96
C       9.64       5.64      12.63
C      10.20       5.82      13.90
C      10.91       4.79      14.53
C      11.02       3.56      13.86
C      10.46       3.37      12.59
C      11.58       6.07      16.56
C      11.38       4.90      15.93
C      10.52       6.27      22.24
C      10.76       6.20      20.78
C      11.57       5.18      20.25
C      11.93       5.18      18.90
C      11.44       6.18      18.04
C      10.65       7.20      18.56
C      10.29       7.21      19.92
F       8.97       6.68      12.08
F      12.04       4.18      21.04
H      11.59       7.00      15.99
H      10.59       2.42      12.10
H      11.41       3.99      16.52
H      11.51       2.78      14.31
H      10.04       6.76      14.41
H       9.70       7.91      20.26
H      10.28       7.93      17.94
H      12.55       4.45      18.55
O       9.34       3.08       9.96
O       9.01       5.32       9.85
O      10.36       7.43      22.83
O      10.68       5.19      22.97
