16

C      11.02       9.04       8.99
C      10.39       7.81       8.94
C      10.99      11.50       8.54
C      10.44      10.17       8.41
C       8.64      11.12       7.10
C       9.27      12.35       7.16
C       8.66       8.66       7.58
C       9.21       9.98       7.70
F      12.23       9.05       9.60
F      10.95       6.82       9.66
F       7.56      11.09       6.53
F       8.76      13.35       6.41
I      12.69      11.88       9.54
I       6.96       8.27       6.57
N       9.29       7.60       8.18
N      10.35      12.56       7.96
