75

C      -3.39      10.63       0.77
C      -3.03       6.80       4.00
C       0.02       8.79       0.39
C      -2.84       6.65       5.51
C      -2.11       7.70       6.06
C      -1.07       3.21       2.08
C      -1.24       2.28       3.03
C       4.67       8.92       5.02
C       2.45       9.13       0.52
C       2.44       8.91       1.91
C       1.14       8.86       2.50
C       3.67       8.84       2.76
C       3.53       8.87       4.17
C       2.24       8.79       4.71
C       1.11       8.70       3.86
C       4.98       8.62       2.28
C       5.95       8.80       4.48
C       5.06       8.25       0.93
C       8.94       6.06       1.12
C       9.71       5.07       1.45
C      10.41       4.17       1.75
C      -2.11       8.03       7.36
C      -3.76       6.35       7.82
C      -2.93       7.41       8.24
C      -4.45       6.17      10.21
C      -4.69       5.52      12.69
C       6.73       4.88       8.45
C       6.01       4.25       9.44
C       6.33       4.49      10.81
C       7.31       5.44      11.25
C       7.77       5.79       8.81
C       5.71       3.73      11.74
C       6.09       3.78      13.08
C       8.73       5.91       6.45
C      -0.26       2.59      14.02
C       7.08       4.63      13.65
C      -0.35       1.29       3.30
C       0.33       0.37       3.52
C       1.10      -0.64       3.76
C       1.08      -4.03       9.55
C       0.36      -4.65      10.53
Cu      -1.98       9.47       2.69
Cu       7.98       7.90       2.19
H      -2.23       8.88       4.74
H       0.19       8.50       4.25
H      -0.20       3.23       1.56
H       2.08       8.76       5.78
H       6.79       8.92       5.20
H       3.30       9.48       0.06
H       4.54       9.01       6.11
H      10.23       2.27       3.60
H       5.28       3.57       9.14
H       6.45       4.65       7.40
H       5.03       3.01      11.44
H       8.24       5.06       6.17
H      -2.34       2.24      14.04
H      -0.21       2.66      12.98
H       6.34       2.32      14.04
H       2.48      -3.03       7.63
H       1.67      -3.23       9.80
H       0.05      -5.73      13.00
H       0.42      -4.26      11.47
N      -0.05       8.98       1.77
N       6.09       8.50       3.11
N       3.49       1.56      13.88
O      -2.07       7.47       3.30
O      -1.53       8.62       5.33
O      -2.14      10.52       1.06
O      -3.42      10.14       3.75
O       7.68       6.19       1.46
O       8.16       7.08       3.68
O       8.15       9.85       1.51
O       9.46       7.20       1.02
O       5.59       2.81      13.78
O       2.37      -0.75       3.44
