20

C      10.39       7.81       8.94
C       9.39      -0.16       8.54
C       9.29       4.25      10.55
C       7.68       0.69       7.16
C       8.66       8.66       7.58
C       6.66       4.35       8.17
C      11.38       4.15       7.92
C       8.99       4.28       5.59
N       9.29       7.60       8.18
N       8.75       0.91       7.96
O       9.34       3.08       9.96
O       9.01       5.32       9.85
O       7.33       3.25       8.37
O      10.76       3.02       8.14
O      10.71       5.26       7.75
O       7.28       5.48       7.98
O       8.83       5.45       6.18
O       9.14       3.20       6.32
Zn       9.04       2.86       8.14
Zn       9.00       5.65       8.01
