114
03/04/2026 07:13, XYZ structure generated by mol3D Class, molSimplify
C 	10.391541	7.814936	8.941780
N 	9.291303	7.596917	8.177544
C 	8.657102	8.659051	7.581354
Zn 	8.998499	5.645641	8.009870
O 	9.007913	5.321926	9.852596
O 	10.707266	5.255614	7.754444
O 	7.278751	5.483551	7.979416
O 	8.829784	5.446115	6.182110
C 	9.290221	4.248160	10.552005
C 	11.379047	4.146391	7.921309
C 	6.657600	4.353342	8.170459
C 	8.989883	4.284629	5.594466
O 	9.340203	3.077725	9.957328
O 	10.761493	3.016688	8.138295
O 	7.325284	3.246133	8.365565
O 	9.144418	3.199735	6.316231
Zn 	9.035863	2.857090	8.141690
N 	8.752144	0.905250	7.955493
C 	9.392084	-0.159289	8.540086
C 	7.676533	0.687080	7.158835
C 	11.020613	9.039035	8.991830
F 	10.945024	6.815836	9.660190
C 	10.435776	10.174529	8.408867
F 	12.226773	9.047103	9.596243
C 	10.986909	11.499757	8.540086
C 	9.214530	9.984927	7.701226
I 	6.956352	8.274556	6.570995
I 	12.691045	11.882801	9.541708
N 	10.346969	12.564296	7.955493
C 	8.639469	11.119630	7.102321
C 	9.271358	12.346126	7.158835
F 	7.561756	11.088033	6.528927
F 	8.759915	13.347220	6.409794
C 	8.840950	-1.484516	8.408867
I 	11.096220	0.223756	9.541708
C 	9.425787	-2.620011	8.991830
C 	7.619704	-1.674119	7.701226
C 	8.796715	-3.844109	8.941780
F 	10.631948	-2.611943	9.596243
C 	7.044644	-0.539416	7.102321
C 	7.062277	-2.999994	7.581354
F 	7.165090	1.688174	6.409794
F 	9.350199	-4.843210	9.660190
N 	7.696478	-4.062129	8.177544
F 	5.966931	-0.571013	6.528927
I 	5.361527	-3.384490	6.570995
C 	9.758451	4.409632	11.958461
C 	9.639144	5.642878	12.632167
C 	10.459211	3.372224	12.594592
C 	10.200870	5.821918	13.900786
F 	8.968067	6.679943	12.075431
C 	11.020648	3.555919	13.864518
H 	10.593192	2.422171	12.099994
C 	10.910713	4.785128	14.527797
H 	10.036817	6.762190	14.405770
H 	11.512218	2.777558	14.310246
C 	11.383431	4.899424	15.934917
C 	11.582934	6.074050	16.560598
H 	11.406450	3.985570	16.520579
C 	11.443993	6.175686	18.035353
H 	11.588809	6.996778	15.987342
C 	11.929987	5.182736	18.898793
C 	10.648644	7.201745	18.563932
C 	11.569420	5.177218	20.250293
H 	12.545938	4.445437	18.546343
C 	10.292627	7.206519	19.921176
H 	10.284318	7.929430	17.942537
C 	10.758715	6.199515	20.781850
F 	12.041773	4.183277	21.043216
H 	9.702309	7.914658	20.260841
C 	10.524271	6.270290	22.243431
O 	10.364173	7.431776	22.831075
O 	10.678807	5.185396	22.965195
C 	9.224326	4.213854	4.132885
C 	10.035031	3.191557	3.601328
C 	8.758239	5.220858	3.272211
C 	10.395598	3.197075	2.249828
F 	10.507385	2.197616	4.394252
C 	9.114255	5.216084	1.914968
H 	8.167920	5.928997	3.611876
C 	9.909604	4.190025	1.386389
H 	11.011549	2.459776	1.897379
H 	8.749929	5.943769	1.293573
C 	10.048545	4.088389	-0.088366
C 	9.849042	2.913762	-0.714047
H 	10.054420	5.011117	-0.661623
C 	9.376324	2.799467	-2.121168
H 	9.872061	1.999909	-0.128386
C 	8.666481	3.836257	-2.748179
C 	9.486259	1.570257	-2.784446
C 	8.104755	3.657217	-4.016798
H 	8.502428	4.776529	-2.243194
C 	8.924822	1.386563	-4.054372
H 	9.977829	0.791897	-2.338719
C 	8.224063	2.423971	-4.690503
F 	7.433678	4.694282	-4.573533
H 	9.058804	0.436510	-4.548971
C 	7.755832	2.262499	-6.096960
O 	7.805814	1.092064	-6.691637
O 	7.473524	3.336265	-6.796368
C 	5.432548	4.317608	8.121152
C 	4.019684	4.277019	8.064179
C 	2.815097	4.236947	8.002334
C 	1.610290	4.193062	7.947159
C 	0.174812	4.146391	7.921309
O 	-0.442741	3.016688	8.138295
O 	-0.496968	5.255614	7.754444
C 	12.814524	4.193062	7.947159
C 	14.019332	4.236947	8.002334
C 	15.223919	4.277019	8.064179
C 	16.636782	4.317608	8.121152
C 	17.861835	4.353342	8.170459
O 	18.529519	3.246133	8.365565
O 	18.482986	5.483551	7.979416
