62

Zn       2.91      10.47       1.40
Zn       0.19      10.22       0.02
H       4.50      -0.70       8.14
H       3.50       9.24       4.33
H      -3.22       8.71       2.50
H      -2.19       8.97       7.07
H       4.51      -0.09      10.45
H       5.66       0.27      12.54
H      -4.37       9.75      10.91
H       2.51       9.71       6.11
H      -3.36       9.28       9.13
H      -2.12       8.78       4.67
C       4.71       8.73       1.93
C      -3.03      -0.61      11.93
C       5.33       8.97       3.28
C       5.55      -0.37      10.52
C       6.21      -0.17      11.73
C      -2.30      -1.04      10.78
C       4.50       9.81       9.48
C       6.24      -0.84       9.40
C       5.20       9.51       8.25
C       4.49       9.48       6.99
C       3.11       9.72       7.01
C       2.44      10.02       8.19
C      -3.95       9.29       8.23
C      -3.27       9.11       7.03
C      -3.94       9.10       5.80
C       5.20       9.26       5.75
C      -3.20       8.90       4.63
C       6.72       8.84       3.39
C       4.57       9.17       4.46
C      -2.42      -0.37      13.29
O       4.66       7.49       1.57
O       4.41       9.74       1.14
O      -2.39       0.87      13.68
O       1.76      -0.02       0.32
H       5.25       9.24       1.71
H       1.00       0.66       0.24
H       4.51       0.20      13.62
H       6.95       7.74       0.23
C       7.45       9.89       0.54
C       6.10      10.51       0.42
C       5.16      -0.61      13.33
C       7.51       8.45       0.85
N      -2.02      10.59       0.37
N       5.09      10.03       1.08
O       5.78      -0.52      12.28
O      -2.46       8.04       1.84
H       4.46       4.31       1.34
H       1.75       5.45       0.13
H      -1.74       1.62      13.56
H       4.03       6.78       1.73
C       2.28       8.01       1.08
C       3.91       1.75       0.42
C       3.08       6.73       1.19
C       3.11       3.03       0.31
C       2.70       5.52       0.67
C       3.51       4.25       0.81
O       1.07       7.87       0.46
O       5.11       1.89       1.07
O       2.76       9.10       1.80
O      -0.48      -0.72      13.51
