24

C       2.63      -0.19      14.92
C       2.40       3.17      12.91
C       0.98       6.71      14.73
C       5.28       3.53      15.44
C       4.36      -0.05      16.55
C       2.94       3.56      18.31
C       0.06       3.14      15.80
C       2.77       6.85      16.27
Cu       2.86       2.23      15.70
Cu       2.49       4.46      15.52
H       1.60       1.22      14.38
H       3.82       5.43      16.87
N       3.34       0.53      15.82
N       2.04       6.14      15.40
O       3.14       2.37      13.62
O       4.63       4.66      15.15
O       1.72       0.28      14.24
O       1.97       4.21      13.60
O       4.59       2.43      15.41
O       3.79       6.32      16.99
O       2.20       4.40      17.64
O       3.34       2.52      17.59
O       0.70       2.00      16.04
O       0.76       4.23      15.81
