148
03/04/2026 07:13, XYZ structure generated by mol3D Class, molSimplify
C 	2.626569	-0.188700	14.920679
N 	3.336283	0.530601	15.817437
O 	1.715549	0.280852	14.241246
C 	4.360275	-0.045394	16.545885
Cu 	2.855279	2.229437	15.701030
H 	1.595744	1.224993	14.384546
O 	3.137632	2.371559	13.620711
O 	4.592532	2.426659	15.410683
O 	3.340499	2.516263	17.594809
O 	0.700211	1.999738	16.036503
C 	2.403378	3.169541	12.914012
C 	5.277150	3.531740	15.437610
C 	2.943904	3.564431	18.305788
C 	0.062111	3.136245	15.796407
O 	1.966833	4.211384	13.601489
O 	4.633733	4.657605	15.153051
O 	2.199985	4.397918	17.638426
O 	0.759607	4.229170	15.811448
Cu 	2.485308	4.456258	15.522719
H 	3.822076	5.433608	16.867441
N 	2.035788	6.139099	15.398091
O 	3.785679	6.315115	16.987261
C 	0.976884	6.706321	14.729718
C 	2.771540	6.847604	16.266545
C 	2.806124	-1.522951	14.771244
C 	3.643948	-2.211498	15.638965
O 	2.028808	-2.129273	13.823808
C 	4.475606	-1.486381	16.492393
N 	3.605852	-3.645950	15.726911
H 	2.492950	-2.872538	13.472626
N 	5.214490	0.749333	17.425125
O 	5.321348	-2.235975	17.278879
N 	2.585392	-4.290946	15.450450
O 	5.009860	0.684939	18.727193
O 	6.404006	1.079391	17.005615
H 	5.943765	-1.602973	17.715755
C 	2.539627	-5.651941	15.560687
C 	1.677988	-6.384290	14.741943
C 	3.402746	-6.348729	16.407371
C 	1.766626	-7.827002	14.729718
O 	0.838898	-5.643457	13.940642
C 	3.561282	-7.685719	16.266545
O 	4.168145	-5.759794	17.371227
N 	0.808536	-8.648193	13.998602
N 	2.825530	-8.394224	15.398091
H 	0.226168	-6.277491	13.495536
O 	4.575421	-8.218207	16.987261
H 	3.719670	-5.045813	17.708460
O 	-0.353006	-8.879880	14.514406
O 	0.759302	-8.499999	12.728673
C 	0.888246	8.149033	14.741943
N 	0.018794	5.885130	13.998602
C 	1.749885	8.881382	15.560687
O 	0.049156	8.889866	13.940642
O 	-1.142748	5.653443	14.514406
O 	-0.030440	6.033323	12.728673
C 	2.613004	8.184594	16.407371
N 	1.795650	10.242377	15.450450
H 	-0.563574	8.255832	13.495536
O 	3.378403	8.773529	17.371227
N 	2.816110	10.887373	15.726911
H 	2.929928	9.487510	17.708460
C 	2.854206	12.321825	15.638965
C 	2.016382	13.010372	14.771244
C 	3.685864	13.046942	16.492393
C 	1.836827	14.344623	14.920679
O 	1.239066	12.404050	13.823808
C 	3.570533	14.487929	16.545885
O 	4.531606	12.297348	17.278879
N 	2.546541	15.063924	15.817437
O 	0.925807	14.814175	14.241246
H 	1.703208	11.660785	13.472626
N 	4.424748	15.282656	17.425125
H 	5.154023	12.930350	17.715755
O 	4.220118	15.218261	18.727193
O 	5.614264	15.612714	17.005615
C 	2.519889	3.157297	11.409626
C 	3.095723	1.989919	10.713344
C 	2.279330	4.376900	10.633205
C 	3.464136	2.129945	9.354001
N 	3.293189	0.644339	11.316053
C 	2.584130	4.440851	9.286976
N 	1.677639	5.593851	11.115941
C 	3.212648	3.350772	8.654749
H 	3.942055	1.270799	8.834944
O 	4.225924	0.477379	12.180711
O 	2.913589	-0.447557	10.659362
H 	2.342554	5.294928	8.790270
O 	2.321164	6.426645	11.896066
O 	0.661776	6.052070	10.453034
C 	3.473599	3.460905	7.219594
C 	3.869774	4.735257	6.660853
C 	3.094146	2.367966	6.404111
C 	3.809637	4.948005	5.270341
H 	4.107905	5.516354	7.257133
C 	3.097391	2.526558	5.017579
H 	2.698837	1.414475	6.844385
C 	3.487707	3.803039	4.417839
N 	4.002460	6.334792	4.777524
N 	2.501754	1.452621	4.240309
C 	3.504090	3.860236	2.996156
O 	2.976581	7.011867	4.363980
O 	5.007259	7.047402	5.191312
O 	2.800442	0.160436	4.455164
O 	1.466232	1.745816	3.540720
O 	2.760170	4.693722	2.328794
O 	3.900685	2.812068	2.285177
C 	2.927521	3.507234	19.727471
C 	3.249451	4.652200	20.579973
C 	2.537205	2.230753	20.327211
C 	3.309588	4.439452	21.970485
N 	3.442274	6.038987	20.087156
C 	2.533961	2.072161	21.713743
N 	1.941568	1.156816	19.549941
C 	2.913413	3.165100	22.529226
H 	3.547719	5.220549	22.566765
O 	2.416395	6.716062	19.673612
O 	4.447073	6.751598	20.500944
H 	2.138651	1.118670	22.154017
O 	2.240256	-0.135369	19.764796
O 	0.906046	1.450011	18.850352
C 	2.652462	3.054967	23.964381
C 	2.903950	1.834141	24.663633
C 	2.023944	4.145046	24.596608
C 	2.535537	1.694114	26.022976
H 	3.381869	0.974994	24.144576
C 	1.719144	4.081095	25.942837
H 	1.782369	4.999123	24.099902
C 	1.959704	2.861492	26.719258
N 	2.733003	0.348534	26.625685
N 	1.117454	5.298046	26.425573
C 	1.843192	2.873736	28.223644
O 	3.665738	0.181575	27.490343
O 	2.353403	-0.743361	25.968994
O 	1.760978	6.130840	27.205698
O 	0.101590	5.756265	25.762666
O 	2.577446	2.075755	28.930343
O 	1.406647	3.915580	28.911121
C 	-1.224290	3.269569	15.677527
C 	-2.412352	3.386372	15.568395
C 	-3.828079	3.531740	15.437610
O 	-4.471496	4.657605	15.153051
O 	-4.512697	2.426659	15.410683
C 	6.692877	3.386372	15.568395
C 	7.880939	3.269569	15.677527
C 	9.167339	3.136245	15.796407
O 	9.805440	1.999738	16.036503
O 	9.864836	4.229170	15.811448
