35

C      -3.39      10.63       0.77
C      -1.51      13.16     -10.27
C      -1.32      13.01      -8.76
C      -0.59      14.06      -8.21
C      -0.59      14.39      -6.91
C      -2.24      12.71      -6.45
C      -1.41      13.77      -6.02
C      -2.93      12.53      -4.05
C      -3.17      11.88      -1.57
C      -4.13      11.24      -5.82
C      -4.86      10.61      -4.83
C      -4.53      10.85      -3.46
C      -3.56      11.80      -3.02
C      -3.10      12.15      -5.46
C      -5.15      10.09      -2.53
C      -4.77      10.14      -1.19
C      -2.14      12.27      -7.82
C      -3.79      10.99      -0.62
C      -1.40      14.25      -4.72
C      -2.13      13.63      -3.74
H      -5.59       9.92      -5.13
H      -4.41      11.00      -6.86
H      -5.84       9.37      -2.83
H      -2.63      11.42      -8.10
H      -4.52       8.67      -0.23
H      -0.00      15.24      -6.64
H      -0.81      15.05      -4.47
H      -2.43      12.55      -1.27
H      -2.07      14.02      -2.80
O      -0.55      13.83     -10.97
O      -0.01      14.98      -8.94
O      -2.14      10.52       1.06
O      -2.70      13.44     -10.58
O      -4.24       9.85       1.51
O      -5.28       9.17      -0.49
