23

N       3.49       1.56      13.88
C      -1.50       2.43      14.66
C       3.15       2.57      19.29
C       0.93       2.77      14.79
C       0.92       2.56      16.18
C      -0.38       2.50      16.77
C       2.15       2.49      17.03
C       2.01       2.51      18.44
C       0.72       2.43      18.97
C      -0.41       2.34      18.13
C       3.46       2.26      16.55
C       4.43       2.44      18.74
C       3.54       1.89      15.20
C      -0.26       2.59      14.02
H      -1.33       2.14      18.52
H       0.56       2.40      20.05
H       5.27       2.56      19.47
H       1.78       3.12      14.33
H       3.02       2.65      20.38
H      -2.34       2.24      14.04
H      -0.21       2.66      12.98
N      -1.57       2.62      16.04
N       4.57       2.14      17.38
