76

C       2.63      -0.19      14.92
C       2.40       3.17      12.91
C       3.46       2.13       9.35
C       2.58       4.44       9.29
C       3.10       1.99      10.71
C       2.28       4.38      10.63
C       2.52       3.16      11.41
C       3.21       3.35       8.65
C       0.98       6.71      14.73
C       2.02      13.01      14.77
C       0.89       8.15      14.74
C       5.84       3.83       0.13
C       8.44       3.57       0.37
C       7.25       3.68       0.26
C       4.92       0.25       1.24
C       3.50       3.86       3.00
C       3.87       4.74       6.66
C       3.09       2.37       6.40
C       3.81       4.95       5.27
C       3.10       2.53       5.02
C       3.49       3.80       4.42
C       3.47       3.46       7.22
C       0.62       3.43       0.49
C       3.33       7.14       0.96
C       3.17       8.48       1.10
C       3.41      12.62       0.33
C       2.31       9.18       0.25
C       4.25      13.34       1.18
Cu       3.42       2.53       0.39
Cu       3.05       4.75       0.21
H       3.94       1.27       8.83
H       2.34       5.29       8.79
H       1.60       1.22      14.38
H       1.70      11.66      13.47
H      -0.56       8.26      13.50
H       4.38       5.73       1.56
H       4.11       5.52       7.26
H       2.70       1.41       6.84
H       3.49       9.78       2.40
H       5.71      13.23       2.41
N       3.29       0.64      11.32
N       1.68       5.59      11.12
N       0.02       5.89      14.00
N       3.90       0.83       0.51
N       2.60       6.43       0.09
N       5.77       1.05       2.12
N       4.00       6.33       4.78
N       2.50       1.45       4.24
N       3.38      11.18       0.42
N       2.36      10.54       0.14
O       7.96       5.65      14.51
O       3.14       2.37      13.62
O       4.23       0.48      12.18
O       2.32       6.43      11.90
O       4.63       4.66      15.15
O       1.72       0.28      14.24
O       1.97       4.21      13.60
O      -0.03       6.03      12.73
O       0.66       6.05      10.45
O       2.12      14.09      10.66
O       1.24      12.40      13.82
O       0.05       8.89      13.94
O       5.15       2.72       0.10
O       4.35       6.61       1.68
O       5.57       0.98       3.42
O       6.96       1.38       1.70
O       2.76       4.69       2.33
O       3.90       2.81       2.29
O       2.98       7.01       4.36
O       5.01       7.05       5.19
O       2.80       0.16       4.46
O       1.26       2.30       0.73
O       1.32       4.52       0.50
O       1.47       1.75       3.54
O       3.94       9.07       2.06
O       5.09      12.59       1.97
