22

C      -3.39      10.63       0.77
C      -3.03       6.80       4.00
C       0.02       8.79       0.39
C       1.14       8.86       2.50
C      -7.40       8.62       2.28
C      -6.43       8.80       4.48
C      -3.45       6.06       1.12
C      -2.91      11.28       3.76
Cu      -1.98       9.47       2.69
Cu      -4.40       7.90       2.19
H      -2.23       8.88       4.74
N      -0.05       8.98       1.77
N      -6.29       8.50       3.11
O      -2.07       7.47       3.30
O      -1.53       8.62       5.33
O      -2.14      10.52       1.06
O      -3.42      10.14       3.75
O      -4.71       6.19       1.46
O      -4.22       7.08       3.68
O      -4.24       9.85       1.51
O      -2.93       7.20       1.02
O      -1.64      11.17       3.44
