147
03/04/2026 07:13, XYZ structure generated by mol3D Class, molSimplify
C 	-3.388858	10.627572	0.766620
O 	-2.139834	10.522331	1.064057
O 	-4.238903	9.853863	1.506469
Cu 	-1.979133	9.474135	2.688965
Cu 	-4.401983	7.898891	2.186960
H 	-2.227240	8.877382	4.741501
N 	-0.051407	8.978915	1.771397
O 	-2.069176	7.472799	3.301338
O 	-3.421767	10.138059	3.748755
O 	-1.636922	11.170835	3.437564
N 	-6.291812	8.500100	3.112990
O 	-4.705983	6.190224	1.456376
O 	-4.221479	7.076646	3.684480
O 	-2.929093	7.204146	1.019752
O 	-1.529901	8.616489	5.330829
C 	0.018647	8.790603	0.388551
C 	1.143924	8.855510	2.502845
C 	-3.027456	6.795947	4.000075
C 	-2.906209	11.283392	3.757192
C 	-7.403527	8.621398	2.281666
C 	-6.434903	8.800831	4.475783
C 	-3.446169	6.056401	1.119661
C 	-3.786009	10.986058	-0.615521
C 	-3.173239	11.877796	-1.574166
C 	-4.773313	10.142327	-1.192473
C 	-3.555731	11.795752	-3.015695
H 	-2.433565	12.549119	-1.273702
C 	-5.153971	10.085188	-2.530052
O 	-5.279124	9.168410	-0.491520
C 	-2.928605	12.533237	-4.054425
C 	-4.533945	10.847716	-3.460594
H 	-5.837528	9.370363	-2.831210
H 	-4.524014	8.674965	-0.231876
C 	-3.100723	12.146292	-5.457263
C 	-2.126825	13.632027	-3.741259
C 	-4.857741	10.611514	-4.833448
C 	-2.237467	12.705473	-6.445091
C 	-4.134611	11.236600	-5.821192
C 	-1.401750	14.251863	-4.723321
H 	-2.067817	14.018707	-2.798037
H 	-5.585659	9.924671	-5.131956
C 	-1.412526	13.770209	-6.024204
C 	-2.138045	12.267652	-7.822392
H 	-4.413248	11.004274	-6.864237
H 	-0.814099	15.052390	-4.473354
C 	-0.589509	14.385883	-6.905019
C 	-1.324750	13.013490	-8.758032
H 	-2.627715	11.421882	-8.096120
C 	-0.592029	14.058526	-8.205722
H 	-0.004268	15.243322	-6.642144
C 	-1.507757	13.155214	-10.268756
O 	-0.010201	14.975756	-8.938002
O 	-0.549476	13.832066	-10.967493
O 	-2.701779	13.435913	-10.584351
C 	-2.844450	6.654223	5.510798
C 	-2.111728	7.699258	6.063108
C 	-3.657744	5.908385	6.446439
C 	-2.109209	8.026616	7.363812
C 	-3.757167	6.346205	7.823739
H 	-4.147414	5.062614	6.172710
C 	-2.932226	7.410942	8.244627
H 	-1.523968	8.884055	7.626687
C 	-4.620423	5.787025	8.811567
C 	-2.921449	7.892596	9.545510
C 	-4.448305	6.173970	10.214406
C 	-5.654310	4.877332	8.447639
C 	-3.646525	7.272760	10.527572
H 	-2.333799	8.693123	9.795476
C 	-5.075430	5.436485	11.253136
C 	-6.377441	4.252247	9.435383
H 	-5.932948	4.645006	7.404594
H 	-3.587517	7.659440	11.470794
C 	-4.692939	5.518529	12.694665
C 	-6.053645	4.488449	10.808237
H 	-7.105359	3.565403	9.136875
C 	-5.305709	4.626791	13.653310
H 	-3.953264	6.189852	12.995128
C 	-6.673671	3.725920	11.738778
C 	-4.908558	4.268305	15.035450
C 	-6.293012	3.783060	13.076358
H 	-7.357228	3.011095	11.437620
O 	-3.659533	4.163064	15.332888
O 	-5.758602	3.494595	15.775300
O 	-6.798824	2.809143	13.777311
H 	-6.043714	2.315698	14.036954
C 	1.262892	8.951868	-0.252799
H 	-0.821575	8.598571	-0.227453
C 	2.448001	9.132333	0.520475
H 	1.314030	9.024206	-1.285268
C 	2.443045	8.914476	1.910911
H 	3.297194	9.476319	0.058326
C 	1.112281	8.696176	3.860559
C 	3.665140	8.844842	2.759868
C 	2.240194	8.786691	4.705629
H 	0.193333	8.499945	4.247760
C 	3.526226	8.872639	4.169127
C 	4.982036	8.621398	2.281666
H 	2.076177	8.759499	5.781608
C 	4.668202	8.924713	5.020068
C 	5.064128	8.253955	0.929996
N 	6.093750	8.500100	3.112990
C 	5.950659	8.800831	4.475783
H 	4.538320	9.012359	6.108764
N 	5.007366	7.918392	-0.385270
H 	6.789622	8.922485	5.204654
C 	-8.720423	8.844842	2.759868
C 	-7.321435	8.253955	0.929996
C 	-9.942518	8.914476	1.910911
C 	-8.859337	8.872639	4.169127
N 	-7.378197	7.918392	-0.385270
C 	-9.937562	9.132333	0.520475
C 	-11.241639	8.855510	2.502845
C 	-7.717360	8.924713	5.020068
C 	-10.145368	8.786691	4.705629
H 	-5.595941	8.922485	5.204654
C 	-11.122670	8.951868	-0.252799
H 	-9.088369	9.476319	0.058326
C 	-11.273282	8.696176	3.860559
N 	-12.436969	8.978915	1.771397
H 	-7.847243	9.012359	6.108764
H 	-10.309386	8.759499	5.781608
C 	-12.366916	8.790603	0.388551
H 	-11.071532	9.024206	-1.285268
H 	-12.192229	8.499945	4.247760
H 	-13.207138	8.598571	-0.227453
C 	-3.674403	12.285878	3.522538
C 	-4.359164	13.212724	3.304341
C 	-5.241302	14.197515	3.034457
C 	-5.077472	15.131772	2.075537
H 	-6.159315	14.188867	3.596733
C 	-5.977894	16.089736	1.748608
H 	-4.202410	15.149163	1.558307
C 	-6.685070	16.986524	1.449513
C 	-7.452114	17.975331	1.119661
O 	-8.711928	18.109155	1.456376
O 	-6.935039	19.123076	1.019752
C 	-2.679125	5.067593	1.449513
C 	-1.971948	4.170805	1.748608
C 	-1.071527	3.212842	2.075537
C 	-1.235357	2.278584	3.034457
H 	-0.196465	3.230232	1.558307
C 	-0.353218	1.293794	3.304341
H 	-2.153369	2.269936	3.596733
C 	0.331542	0.366947	3.522538
C 	1.099736	-0.635539	3.757192
O 	0.584179	-1.780871	3.748755
O 	2.369023	-0.748096	3.437564
