63
03/04/2026 07:53, XYZ structure generated by mol3D Class, molSimplify
O 	0.446958	1.340627	1.439690
Ce 	1.294633	-0.249680	3.216611
C 	-0.600358	2.083277	1.486636
O 	1.021934	-1.418991	1.021084
O 	1.830872	1.939810	4.086293
O 	2.217132	-2.553461	3.464253
O 	3.256724	-0.112121	1.717456
N 	3.686024	-0.570249	4.616396
N 	-1.122361	0.940368	3.593356
O 	-0.558422	-1.926549	3.470121
C 	-1.515243	1.838540	2.675945
C 	1.969926	-1.397290	0.199522
C 	2.240308	3.102009	4.019785
C 	3.277692	-2.925991	4.019785
C 	3.308593	-0.764350	0.641601
C 	4.135189	-1.842157	4.690728
C 	4.395639	0.338774	5.261909
C 	-1.921368	0.781229	4.665298
C 	-0.943578	-2.723450	4.350366
C 	1.382811	4.185843	4.690728
O 	3.300868	3.474539	3.464253
C 	0.221824	3.854303	5.375363
N 	1.831976	5.457751	4.616396
C 	-0.461305	4.888708	5.950456
H 	-0.076148	2.975421	5.437958
C 	1.122361	6.366774	5.261909
C 	-1.765760	4.658438	6.699643
N 	-0.005518	6.142532	5.948500
H 	1.435784	7.242039	5.236480
O 	-2.304317	5.621713	7.302121
O 	-2.252448	3.492623	6.576408
O 	-0.949096	2.913935	0.690503
C 	-2.678437	2.586012	2.834389
C 	-3.389156	2.399144	4.002181
H 	-2.964270	3.185195	2.183008
C 	-4.574422	3.304550	4.350366
N 	-3.026071	1.504589	4.909811
H 	-1.692922	0.121766	5.279514
O 	-5.029105	3.180373	5.508378
O 	-4.959578	4.101451	3.470121
O 	4.295211	-0.937957	-0.091937
O 	1.923575	-1.826484	-0.995655
C 	-2.128844	-3.628856	4.002181
O 	-0.488895	-2.847627	5.508378
C 	-2.839563	-3.441988	2.834389
N 	-2.491929	-4.523411	4.909811
C 	-4.002757	-4.189460	2.675945
H 	-2.553730	-2.842805	2.183008
C 	-3.596632	-5.246771	4.665298
C 	-4.917642	-3.944723	1.486636
N 	-4.395639	-5.087632	3.593356
H 	-3.825078	-5.906234	5.279514
O 	-5.964958	-4.687373	1.439690
O 	-4.568904	-3.114065	0.690503
O 	3.687128	-4.088190	4.086293
C 	5.296176	-2.173697	5.375363
H 	5.594148	-3.052579	5.437958
C 	5.979305	-1.139292	5.950456
H 	4.082216	1.214039	5.236480
N 	5.523518	0.114532	5.948500
C 	7.283760	-1.369562	6.699643
O 	7.770448	-2.535377	6.576408
O 	7.822317	-0.406287	7.302121
