63
03/04/2026 07:53, XYZ structure generated by mol3D Class, molSimplify
C 	1.122361	6.366774	5.261909
N 	1.831976	5.457751	4.616396
C 	1.382811	4.185843	4.690728
Ce 	4.223367	5.778320	3.216611
C 	2.240308	3.102009	4.019785
O 	2.261276	5.915879	1.717456
O 	3.300868	3.474539	3.464253
O 	3.687128	7.967810	4.086293
O 	4.496066	4.609009	1.021084
O 	5.071042	7.368627	1.439690
O 	6.076422	4.101451	3.470121
N 	6.640361	6.968368	3.593356
C 	2.209407	5.263650	0.641601
C 	3.277692	9.130009	4.019785
C 	3.548074	4.630710	0.199522
C 	6.118358	8.111277	1.486636
C 	6.461578	3.304550	4.350366
C 	7.033243	7.866540	2.675945
C 	7.439368	6.809229	4.665298
H 	1.435784	7.242039	5.236480
N 	-0.005518	6.142532	5.948500
C 	-0.461305	4.888708	5.950456
C 	0.221824	3.854303	5.375363
C 	-1.765760	4.658438	6.699643
H 	-0.076148	2.975421	5.437958
O 	1.830872	1.939810	4.086293
O 	-2.304317	5.621713	7.302121
O 	-2.252448	3.492623	6.576408
O 	6.006895	3.180373	5.508378
C 	7.646844	2.399144	4.002181
N 	8.009929	1.504589	4.909811
C 	8.357563	2.586012	2.834389
C 	9.114632	0.781229	4.665298
H 	8.071730	3.185195	2.183008
C 	9.520757	1.838540	2.675945
H 	9.343078	0.121766	5.279514
N 	9.913639	0.940368	3.593356
C 	10.435642	2.083277	1.486636
O 	11.482958	1.340627	1.439690
O 	10.086904	2.913935	0.690503
O 	1.222789	5.090043	-0.091937
O 	3.594425	4.201516	-0.995655
O 	6.467096	8.941935	0.690503
C 	8.196437	8.614012	2.834389
H 	8.482270	9.213195	2.183008
C 	8.907156	8.427144	4.002181
H 	7.210922	6.149766	5.279514
N 	8.544071	7.532589	4.909811
C 	10.092422	9.332550	4.350366
O 	10.477578	10.129451	3.470121
O 	10.547105	9.208373	5.508378
O 	2.217132	9.502539	3.464253
C 	4.135189	10.213843	4.690728
N 	3.686024	11.485751	4.616396
C 	5.296176	9.882303	5.375363
C 	4.395639	12.394774	5.261909
H 	5.594148	9.003421	5.437958
C 	5.979305	10.916708	5.950456
H 	4.082216	13.270039	5.236480
N 	5.523518	12.170532	5.948500
C 	7.283760	10.686438	6.699643
O 	7.770448	9.520623	6.576408
O 	7.822317	11.649713	7.302121
