63
03/04/2026 07:53, XYZ structure generated by mol3D Class, molSimplify
Ce 	9.741367	0.249680	12.997111
O 	11.594422	1.926549	13.250621
N 	12.158361	-0.940368	13.373856
N 	7.349976	0.570249	14.396896
O 	7.779276	0.112121	11.497956
O 	8.818868	2.553461	13.244753
O 	9.205128	-1.939810	13.866793
O 	10.014066	1.418991	10.801584
O 	10.589042	-1.340627	11.220190
C 	11.979578	2.723450	14.130866
C 	12.551243	-1.838540	12.456445
C 	12.957368	-0.781229	14.445798
C 	6.640361	-0.338774	15.042409
C 	6.900811	1.842157	14.471228
C 	7.727407	0.764350	10.422101
C 	7.758308	2.925991	13.800286
C 	8.795692	-3.102009	13.800286
C 	9.066074	1.397290	9.980022
C 	11.636358	-2.083277	11.267136
O 	7.735132	-3.474539	13.244753
C 	9.653189	-4.185843	14.471228
N 	9.204024	-5.457751	14.396896
C 	10.814176	-3.854303	15.155863
C 	9.913639	-6.366774	15.042409
H 	11.112148	-2.975421	15.218458
C 	11.497305	-4.888708	15.730956
N 	11.041518	-6.142532	15.729000
H 	9.600216	-7.242039	15.016980
C 	12.801760	-4.658438	16.480142
O 	13.288448	-3.492623	16.356908
O 	13.340317	-5.621713	17.082621
O 	11.524895	2.847627	15.288878
C 	13.164844	3.628856	13.782681
N 	13.527929	4.523411	14.690311
C 	13.875563	3.441988	12.614889
C 	14.632632	5.246771	14.445798
H 	13.589730	2.842805	11.963508
C 	15.038757	4.189460	12.456445
H 	14.861078	5.906234	15.060014
N 	15.431639	5.087632	13.373856
C 	15.953642	3.944723	11.267136
O 	15.604904	3.114065	10.471003
O 	17.000958	4.687373	11.220190
O 	11.985096	-2.913935	10.471003
C 	13.714437	-2.586012	12.614889
H 	14.000270	-3.185195	11.963508
C 	14.425156	-2.399144	13.782681
H 	12.728922	-0.121766	15.060014
N 	14.062071	-1.504589	14.690311
C 	15.610422	-3.304550	14.130866
O 	15.995578	-4.101451	13.250621
O 	16.065105	-3.180373	15.288878
O 	6.740789	0.937957	9.688563
O 	9.112425	1.826484	8.784845
O 	7.348872	4.088190	13.866793
C 	5.739824	2.173697	15.155863
C 	5.056695	1.139292	15.730956
H 	5.441852	3.052579	15.218458
C 	3.752240	1.369562	16.480142
N 	5.512482	-0.114532	15.729000
H 	6.953784	-1.214039	15.016980
O 	3.213683	0.406287	17.082621
O 	3.265552	2.535377	16.356908
