17

C       7.65       2.40       4.00
C       7.73       0.76      10.42
N       5.52       0.11       5.95
N       8.01       1.50       4.91
O       7.82      -0.41       7.30
C       9.27       4.66       6.70
C       5.98      -1.14       5.95
O       6.01       3.18       5.51
C       6.46       3.30       4.35
O       8.78       3.49       6.58
O       6.74       0.94       9.69
C       9.07       1.40       9.98
O       9.11       1.83       8.78
C       9.11       0.78       4.67
Ce       7.02       1.93       7.41
C       4.40       0.34       5.26
C       7.28      -1.37       6.70
