63
03/04/2026 07:53, XYZ structure generated by mol3D Class, molSimplify
C 	9.653189	7.870157	14.471228
C 	8.795692	8.953991	13.800286
N 	9.204024	6.598249	14.396896
O 	7.735132	8.581461	13.244753
Ce 	6.812633	6.277680	12.997111
C 	9.913639	5.689226	15.042409
N 	4.395639	5.087632	13.373856
O 	4.959578	7.954549	13.250621
O 	5.964958	4.687373	11.220190
O 	6.539934	7.446991	10.801584
O 	7.348872	4.088190	13.866793
O 	8.774724	6.140121	11.497956
C 	3.596632	5.246771	14.445798
C 	4.002757	4.189460	12.456445
C 	4.574422	8.751450	14.130866
C 	4.917642	3.944723	11.267136
C 	7.487926	7.425290	9.980022
C 	7.758308	2.925991	13.800286
C 	8.826593	6.792350	10.422101
C 	10.814176	8.201697	15.155863
O 	9.205128	10.116190	13.866793
H 	11.112148	9.080579	15.218458
C 	11.497305	7.167292	15.730956
N 	11.041518	5.913468	15.729000
H 	9.600216	4.813961	15.016980
C 	12.801760	7.397562	16.480142
O 	13.288448	8.563377	16.356908
O 	13.340317	6.434287	17.082621
O 	4.568904	3.114065	10.471003
C 	2.839563	3.441988	12.614889
C 	2.128844	3.628856	13.782681
H 	2.553730	2.842805	11.963508
C 	0.943578	2.723450	14.130866
N 	2.491929	4.523411	14.690311
H 	3.825078	5.906234	15.060014
O 	0.488895	2.847627	15.288878
O 	0.558422	1.926549	13.250621
C 	3.389156	9.656856	13.782681
O 	5.029105	8.875627	15.288878
C 	2.678437	9.469988	12.614889
N 	3.026071	10.551411	14.690311
C 	1.515243	10.217460	12.456445
H 	2.964270	8.870805	11.963508
C 	1.921368	11.274771	14.445798
C 	0.600358	9.972723	11.267136
N 	1.122361	11.115632	13.373856
H 	1.692922	11.934234	15.060014
O 	0.949096	9.142065	10.471003
O 	-0.446958	10.715373	11.220190
O 	9.813211	6.965957	9.688563
O 	7.441575	7.854484	8.784845
C 	6.900811	1.842157	14.471228
O 	8.818868	2.553461	13.244753
C 	5.739824	2.173697	15.155863
N 	7.349976	0.570249	14.396896
C 	5.056695	1.139292	15.730956
H 	5.441852	3.052579	15.218458
C 	6.640361	-0.338774	15.042409
C 	3.752240	1.369562	16.480142
N 	5.512482	-0.114532	15.729000
H 	6.953784	-1.214039	15.016980
O 	3.213683	0.406287	17.082621
O 	3.265552	2.535377	16.356908
