19

Ce       9.74       0.25      13.00
O      10.01       1.42      10.80
O      11.59       1.93      13.25
C      11.64      -2.08      11.27
C      11.98       2.72      14.13
N      12.16      -0.94      13.37
O      10.59      -1.34      11.22
C      12.55      -1.84      12.46
C      12.96      -0.78      14.45
C       6.64      -0.34      15.04
C       6.90       1.84      14.47
N       7.35       0.57      14.40
C       7.73       0.76      10.42
C       7.76       2.93      13.80
O       7.78       0.11      11.50
C       8.80      -3.10      13.80
O       8.82       2.55      13.24
C       9.07       1.40       9.98
O       9.21      -1.94      13.87
