19

C       1.12       6.37       5.26
C       1.38       4.19       4.69
N       1.83       5.46       4.62
C       2.21       5.26       0.64
C       2.24       3.10       4.02
O       2.26       5.92       1.72
C       3.28       9.13       4.02
O       3.30       3.47       3.46
C       3.55       4.63       0.20
O       3.69       7.97       4.09
Ce       4.22       5.78       3.22
O       4.50       4.61       1.02
O       5.07       7.37       1.44
O       6.08       4.10       3.47
C       6.12       8.11       1.49
C       6.46       3.30       4.35
N       6.64       6.97       3.59
C       7.03       7.87       2.68
C       7.44       6.81       4.67
