49
03/04/2026 07:53, XYZ structure generated by mol3D Class, molSimplify
O 	5.029105	8.875627	15.288878
Ce 	4.020525	10.129090	17.190011
C 	4.574422	8.751450	14.130866
O 	1.923575	10.229516	18.565345
O 	2.252448	8.563377	16.356908
N 	3.026071	10.551411	14.690311
O 	3.213683	12.462287	17.082621
O 	4.295211	11.118043	19.469063
N 	5.512482	11.941468	15.729000
C 	3.389156	9.656856	13.782681
C 	1.969926	10.658710	19.760522
C 	1.765760	7.397562	16.480142
C 	1.921368	11.274771	14.445798
C 	3.752240	13.425562	16.480142
C 	3.308593	11.291650	20.202601
C 	5.056695	13.195292	15.730956
C 	6.640361	11.717226	15.042409
C 	0.461305	7.167292	15.730956
O 	2.304317	6.434287	17.082621
N 	0.005518	5.913468	15.729000
C 	-0.221824	8.201697	15.155863
C 	-1.122361	5.689226	15.042409
H 	0.076148	9.080579	15.218458
C 	-1.382811	7.870157	14.471228
N 	-1.831976	6.598249	14.396896
H 	-1.435784	4.813961	15.016980
C 	-2.240308	8.953991	13.800286
O 	-3.300868	8.581461	13.244753
O 	-1.830872	10.116190	13.866793
O 	4.959578	7.954549	13.250621
C 	2.678437	9.469988	12.614889
C 	1.515243	10.217460	12.456445
H 	2.964270	8.870805	11.963508
C 	0.600358	9.972723	11.267136
N 	1.122361	11.115632	13.373856
H 	1.692922	11.934234	15.060014
O 	0.949096	9.142065	10.471003
O 	-0.446958	10.715373	11.220190
O 	1.021934	10.637009	20.582084
O 	3.256724	11.943879	21.278456
C 	5.739824	14.229697	15.155863
O 	3.265552	14.591377	16.356908
H 	5.441852	15.108579	15.218458
C 	6.900811	13.898157	14.471228
H 	6.953784	10.841961	15.016980
N 	7.349976	12.626249	14.396896
C 	7.758308	14.981991	13.800286
O 	7.348872	16.144190	13.866793
O 	8.818868	14.609461	13.244753
