17

N       0.01       5.91      15.73
N       2.49       4.52      14.69
O       2.30       6.43      17.08
C       0.46       7.17      15.73
O       0.49       2.85      15.29
C      -1.12       5.69      15.04
C       0.94       2.72      14.13
O       3.27       2.54      16.36
O       1.22       5.09      19.47
C       3.55       4.63      19.76
O       3.59       4.20      18.57
C       3.60       5.25      14.45
Ce       1.50       4.10      17.19
C       3.75       1.37      16.48
C       1.77       7.40      16.48
C       2.13       3.63      13.78
C       2.21       5.26      20.20
