19

O       0.45       1.34       1.44
N      -1.12       0.94       3.59
C      -0.94      -2.72       4.35
C      -0.60       2.08       1.49
O      -0.56      -1.93       3.47
O       1.02      -1.42       1.02
Ce       1.29      -0.25       3.22
O       1.83       1.94       4.09
C       1.97      -1.40       0.20
O       2.22      -2.55       3.46
C       2.24       3.10       4.02
O       3.26      -0.11       1.72
C       3.28      -2.93       4.02
C       3.31      -0.76       0.64
N       3.69      -0.57       4.62
C       4.14      -1.84       4.69
C       4.40       0.34       5.26
C      -1.92       0.78       4.67
C      -1.52       1.84       2.68
