49
03/04/2026 07:53, XYZ structure generated by mol3D Class, molSimplify
O 	7.441575	7.854484	8.784845
C 	7.487926	7.425290	9.980022
Ce 	9.538525	7.954910	7.409511
C 	8.826593	6.792350	10.422101
O 	7.770448	9.520623	6.576408
N 	8.544071	7.532589	4.909811
O 	8.731683	5.621713	7.302121
O 	9.813211	6.965957	9.688563
O 	10.547105	9.208373	5.508378
N 	11.030482	6.142532	5.948500
C 	7.283760	10.686438	6.699643
C 	7.439368	6.809229	4.665298
C 	8.907156	8.427144	4.002181
C 	9.270240	4.658438	6.699643
C 	10.092422	9.332550	4.350366
C 	12.158361	6.366774	5.261909
C 	10.574695	4.888708	5.950456
H 	12.471784	7.242039	5.236480
N 	12.867976	5.457751	4.616396
C 	12.418811	4.185843	4.690728
C 	11.257824	3.854303	5.375363
C 	13.276308	3.102009	4.019785
H 	10.959852	2.975421	5.437958
O 	12.866872	1.939810	4.086293
O 	14.336868	3.474539	3.464253
O 	8.783552	3.492623	6.576408
O 	6.539934	7.446991	10.801584
O 	8.774724	6.140121	11.497956
O 	10.477578	10.129451	3.470121
C 	8.196437	8.614012	2.834389
C 	7.033243	7.866540	2.675945
H 	8.482270	9.213195	2.183008
C 	6.118358	8.111277	1.486636
N 	6.640361	6.968368	3.593356
H 	7.210922	6.149766	5.279514
O 	5.071042	7.368627	1.439690
O 	6.467096	8.941935	0.690503
C 	5.979305	10.916708	5.950456
O 	7.822317	11.649713	7.302121
C 	5.296176	9.882303	5.375363
N 	5.523518	12.170532	5.948500
C 	4.135189	10.213843	4.690728
H 	5.594148	9.003421	5.437958
C 	4.395639	12.394774	5.261909
C 	3.277692	9.130009	4.019785
N 	3.686024	11.485751	4.616396
H 	4.082216	13.270039	5.236480
O 	2.217132	9.502539	3.464253
O 	3.687128	7.967810	4.086293
