49
03/04/2026 07:53, XYZ structure generated by mol3D Class, molSimplify
N 	0.005518	5.913468	15.729000
C 	0.461305	7.167292	15.730956
Ce 	1.497475	4.101090	17.190011
C 	-1.122361	5.689226	15.042409
C 	1.765760	7.397562	16.480142
O 	0.488895	2.847627	15.288878
O 	1.222789	5.090043	19.469063
O 	2.304317	6.434287	17.082621
N 	2.491929	4.523411	14.690311
O 	3.265552	2.535377	16.356908
O 	3.594425	4.201516	18.565345
C 	0.943578	2.723450	14.130866
C 	2.209407	5.263650	20.202601
C 	2.128844	3.628856	13.782681
C 	3.596632	5.246771	14.445798
C 	3.752240	1.369562	16.480142
C 	3.548074	4.630710	19.760522
C 	-0.221824	8.201697	15.155863
N 	-1.831976	6.598249	14.396896
H 	-1.435784	4.813961	15.016980
O 	2.252448	8.563377	16.356908
H 	0.076148	9.080579	15.218458
C 	-1.382811	7.870157	14.471228
C 	-2.240308	8.953991	13.800286
O 	-3.300868	8.581461	13.244753
O 	-1.830872	10.116190	13.866793
C 	2.839563	3.441988	12.614889
H 	3.825078	5.906234	15.060014
N 	4.395639	5.087632	13.373856
O 	0.558422	1.926549	13.250621
H 	2.553730	2.842805	11.963508
C 	4.002757	4.189460	12.456445
C 	4.917642	3.944723	11.267136
O 	4.568904	3.114065	10.471003
O 	5.964958	4.687373	11.220190
O 	2.261276	5.915879	21.278456
O 	4.496066	4.609009	20.582084
O 	3.213683	0.406287	17.082621
C 	5.056695	1.139292	15.730956
N 	5.512482	-0.114532	15.729000
C 	5.739824	2.173697	15.155863
C 	6.640361	-0.338774	15.042409
H 	5.441852	3.052579	15.218458
C 	6.900811	1.842157	14.471228
H 	6.953784	-1.214039	15.016980
N 	7.349976	0.570249	14.396896
C 	7.758308	2.925991	13.800286
O 	7.348872	4.088190	13.866793
O 	8.818868	2.553461	13.244753
