17

O       5.03       8.88      15.29
C       5.06      13.20      15.73
N       3.03      10.55      14.69
N       5.51      11.94      15.73
O       3.21      12.46      17.08
C       3.31      11.29      20.20
C       3.39       9.66      13.78
C       3.75      13.43      16.48
C       6.64      11.72      15.04
C       1.77       7.40      16.48
Ce       4.02      10.13      17.19
C       1.92      11.27      14.45
O       1.92      10.23      18.57
C       1.97      10.66      19.76
O       4.30      11.12      19.47
O       2.25       8.56      16.36
C       4.57       8.75      14.13
