19

C       9.65       7.87      14.47
C       9.91       5.69      15.04
C       3.60       5.25      14.45
C       4.00       4.19      12.46
N       4.40       5.09      13.37
C       4.57       8.75      14.13
C       4.92       3.94      11.27
O       4.96       7.95      13.25
O       5.96       4.69      11.22
O       6.54       7.45      10.80
Ce       6.81       6.28      13.00
O       7.35       4.09      13.87
C       7.49       7.43       9.98
O       7.74       8.58      13.24
C       7.76       2.93      13.80
O       8.77       6.14      11.50
C       8.80       8.95      13.80
C       8.83       6.79      10.42
N       9.20       6.60      14.40
