49
03/04/2026 07:53, XYZ structure generated by mol3D Class, molSimplify
C 	7.646844	2.399144	4.002181
C 	6.461578	3.304550	4.350366
N 	8.009929	1.504589	4.909811
O 	6.006895	3.180373	5.508378
Ce 	7.015475	1.926910	7.409511
C 	9.114632	0.781229	4.665298
N 	5.523518	0.114532	5.948500
O 	6.740789	0.937957	9.688563
O 	7.822317	-0.406287	7.302121
O 	8.783552	3.492623	6.576408
O 	9.112425	1.826484	8.784845
C 	4.395639	0.338774	5.261909
C 	5.979305	-1.139292	5.950456
C 	7.727407	0.764350	10.422101
C 	7.283760	-1.369562	6.699643
C 	9.270240	4.658438	6.699643
C 	9.066074	1.397290	9.980022
O 	8.731683	5.621713	7.302121
C 	10.574695	4.888708	5.950456
C 	11.257824	3.854303	5.375363
N 	11.030482	6.142532	5.948500
C 	12.418811	4.185843	4.690728
H 	10.959852	2.975421	5.437958
C 	12.158361	6.366774	5.261909
N 	12.867976	5.457751	4.616396
C 	13.276308	3.102009	4.019785
H 	12.471784	7.242039	5.236480
O 	12.866872	1.939810	4.086293
O 	14.336868	3.474539	3.464253
C 	8.357563	2.586012	2.834389
O 	6.076422	4.101451	3.470121
H 	8.071730	3.185195	2.183008
C 	9.520757	1.838540	2.675945
H 	9.343078	0.121766	5.279514
N 	9.913639	0.940368	3.593356
C 	10.435642	2.083277	1.486636
O 	11.482958	1.340627	1.439690
O 	10.086904	2.913935	0.690503
O 	7.779276	0.112121	11.497956
O 	10.014066	1.418991	10.801584
N 	3.686024	-0.570249	4.616396
H 	4.082216	1.214039	5.236480
C 	5.296176	-2.173697	5.375363
C 	4.135189	-1.842157	4.690728
H 	5.594148	-3.052579	5.437958
O 	7.770448	-2.535377	6.576408
C 	3.277692	-2.925991	4.019785
O 	2.217132	-2.553461	3.464253
O 	3.687128	-4.088190	4.086293
