17

O       7.44       7.85       8.78
C       7.49       7.43       9.98
O       9.81       6.97       9.69
O       7.77       9.52       6.58
C      10.09       9.33       4.35
O      10.55       9.21       5.51
C      12.16       6.37       5.26
C      10.57       4.89       5.95
N       8.54       7.53       4.91
O       8.73       5.62       7.30
N      11.03       6.14       5.95
C       8.83       6.79      10.42
C       8.91       8.43       4.00
C       9.27       4.66       6.70
C       7.28      10.69       6.70
Ce       9.54       7.95       7.41
C       7.44       6.81       4.67
