30

C       2.63      -0.19      14.92
O       5.01       0.68      18.73
O       6.40       1.08      17.01
C       1.77      -7.83      14.73
C       2.81      -1.52      14.77
C       1.68      -6.38      14.74
O       4.17      -5.76      17.37
O       5.32      -2.24      17.28
C       4.36      -0.05      16.55
C       3.56      -7.69      16.27
C       3.40      -6.35      16.41
C       3.64      -2.21      15.64
C       2.54      -5.65      15.56
C       4.48      -1.49      16.49
H       2.49      -2.87      13.47
H       0.23      -6.28      13.50
H       3.72      -5.05      17.71
H       5.94      -1.60      17.72
N       0.81      -8.65      14.00
N       3.34       0.53      15.82
N       2.83      -8.39      15.40
N       5.21       0.75      17.43
N       3.61      -3.65      15.73
N       2.59      -4.29      15.45
O      -0.35      -8.88      14.51
O       1.72       0.28      14.24
O       0.76      -8.50      12.73
O       2.03      -2.13      13.82
O       0.84      -5.64      13.94
O       4.58      -8.22      16.99
