34

C       2.40       3.17      12.91
C       3.46       2.13       9.35
C       2.58       4.44       9.29
C       3.10       1.99      10.71
C       2.28       4.38      10.63
C       2.52       3.16      11.41
C       3.21       3.35       8.65
C       3.50       3.86       3.00
C       3.87       4.74       6.66
C       3.09       2.37       6.40
C       3.81       4.95       5.27
C       3.10       2.53       5.02
C       3.49       3.80       4.42
C       3.47       3.46       7.22
H       3.94       1.27       8.83
H       2.34       5.29       8.79
H       4.11       5.52       7.26
H       2.70       1.41       6.84
N       3.29       0.64      11.32
N       1.68       5.59      11.12
N       4.00       6.33       4.78
N       2.50       1.45       4.24
O       3.14       2.37      13.62
O       4.23       0.48      12.18
O       2.32       6.43      11.90
O       1.97       4.21      13.60
O       0.66       6.05      10.45
O       2.91      -0.45      10.66
O       2.76       4.69       2.33
O       3.90       2.81       2.29
O       2.98       7.01       4.36
O       5.01       7.05       5.19
O       2.80       0.16       4.46
O       1.47       1.75       3.54
