64

C       5.56      22.99      27.40
C       4.33      22.86      26.73
C       1.93      22.68      26.85
C       4.25      22.78      25.31
C       1.89      22.59      25.42
C       3.72      21.65      22.45
C       2.13      23.45      22.46
C       2.96      22.59      23.19
C       3.16      22.82      27.51
C       3.66      21.60      21.03
C       0.76      22.64      27.62
C       2.05      23.41      21.04
C       2.83      22.49      20.29
C       2.85      22.52      18.84
C       3.82      23.45      40.49
C       4.02      23.50      41.93
C       4.66      23.42      35.35
C       2.82      24.27      38.37
C       2.93      24.31      39.79
C       4.57      22.54      39.69
C       4.44      22.50      38.28
C       3.59      23.38      37.59
C       2.30      23.21      35.46
C       5.76      23.28      31.76
C       5.80      23.38      33.15
C       5.64      23.08      28.79
C       3.39      23.18      33.26
C       2.22      23.13      34.03
C       4.63      23.33      33.92
C       2.02      22.87      29.72
C       4.54      23.14      31.05
C       4.48      23.04      29.61
C       2.08      22.95      31.16
C       3.22      22.91      28.95
C       3.34      23.09      31.82
C       0.80      22.73      29.01
C       0.99      22.99      33.37
C       0.92      22.91      31.97
F       4.44      20.69      20.40
F       1.23      24.29      20.42
F       5.39      21.71      40.22
F       2.25      25.12      40.41
H       6.44      23.02      26.86
H       4.33      21.00      22.94
H      -0.16      22.55      27.16
H       1.56      24.15      22.95
H       5.03      21.78      37.72
H       2.15      24.97      37.88
H       6.63      23.17      29.20
H       6.77      23.48      33.63
H       6.66      23.32      31.28
H      -0.01      22.81      31.58
H       0.07      22.95      33.93
H      -0.10      22.70      29.49
N       3.04      22.65      24.67
N       3.51      23.35      36.11
O       5.36      22.87      24.60
O       0.72      22.42      24.83
O       3.64      21.67      18.14
O       2.13      23.43      18.16
O       3.36      24.32      42.75
O       4.95      22.70      42.46
O       5.82      23.60      35.95
O       1.19      23.10      36.17
