36

F      11.58       5.63      16.81
F       9.82       3.85      16.28
F       5.42       3.41      12.70
F       3.21       1.85      12.61
H       5.32      -0.56      17.20
H       7.58       9.23      15.84
H       6.26       3.95      17.30
C       2.52       0.37      14.88
H       7.73       1.61      16.54
H       6.14       6.49      14.94
C       4.89       0.41      15.54
H       8.08       3.79      13.19
C      11.04       8.34      17.02
C       3.92       0.62      14.53
C       6.20       2.29      14.66
C       6.04       1.24      15.62
C       7.15       4.32      15.71
C       7.26       3.33      14.80
O       1.96      -0.85      14.92
C       7.84       6.77      15.78
O       4.60      -0.53      16.52
C       8.19       5.39      15.85
C      10.45       6.01      16.50
C       9.50       5.04      16.19
C      10.11       7.39      16.53
C       8.80       7.77      16.13
O       8.47       9.11      16.10
O      10.73       9.61      17.15
C       4.16       1.58      13.54
C       5.29       2.41      13.61
O       6.03       4.40      16.51
O       6.58       7.18      15.39
O       6.93       1.05      16.66
O       1.93       1.44      15.38
O      12.23       7.96      17.42
O       8.33       3.28      13.94
