64

C      12.80       8.88      24.02
C      10.65       9.96      23.74
C      12.99       8.86      22.66
C      10.83       9.97      22.37
C      12.02       9.45      21.82
C      11.65       9.45      24.56
C      11.60      11.13      27.80
C      11.49       8.55      26.76
C      11.60      10.92      26.43
C      12.25       9.57      20.46
C      14.41      11.68      42.14
C      12.37      10.84      39.20
C      14.32      12.11      38.49
C      12.78      10.94      40.51
C      14.73      12.23      39.80
C      13.98      11.63      40.83
C      13.15      11.40      38.19
C      12.45      12.27      36.08
C      12.82       9.92      36.35
C      12.51       9.70      35.01
C      11.65      12.43      28.32
C      11.58      10.02      28.67
C      11.73       9.08      30.91
C      11.69      11.53      30.58
C      11.75      11.72      31.98
C      11.98       9.28      32.29
C      11.66      10.22      30.06
C      11.97      10.60      32.81
C      11.70      12.63      29.68
C      11.64      13.00      32.56
C      11.85      13.18      33.92
C      12.17      12.09      34.73
C      12.21      10.79      34.19
C      11.51       8.72      28.14
C      12.54       8.41      34.49
C      12.28       8.20      33.15
C      11.59       7.79      30.36
C      11.49       7.62      28.99
F      14.15       8.34      22.18
F       9.84      10.52      21.61
F      12.00      10.35      41.46
F      15.88      12.91      40.05
H      11.68      13.29      27.67
H      13.58       8.50      24.68
H       9.76      10.40      24.16
H      11.47      10.30      38.95
H      14.92      12.53      37.69
H      12.78       7.55      35.11
H      11.79      13.65      30.00
H      11.38      13.89      32.01
H      11.79      14.19      34.32
H      11.42       6.61      28.61
H      11.54       6.89      30.95
H      12.37       7.18      32.82
N      11.56       9.64      25.95
N      12.79      11.20      36.84
O      11.70      11.94      25.61
O      11.43       7.34      26.24
O      13.29       8.98      19.92
O      11.44      10.31      19.75
O      15.48      12.41      42.49
O      13.75      11.02      43.08
O      12.41      13.48      36.61
O      13.17       8.92      37.13
