42

F      22.14      14.82      17.09
H      21.58      18.47      17.43
H      20.12      13.78      15.45
C      20.47      16.22      16.40
C      22.49      18.30      16.99
C      22.81      17.04      16.50
C      23.40      19.35      16.97
C      24.12      16.79      16.03
C      25.55      20.23      16.31
C      24.71      19.16      16.43
C      25.08      17.85      16.02
C      21.78      15.96      16.63
N      22.99      20.55      17.62
N      26.39      17.59      15.50
N      18.40      16.80      18.35
C      18.30      13.14      16.20
N      24.48      15.49      15.55
C      19.40      15.25      16.72
C      19.39      14.01      16.07
C      18.34      15.59      17.59
C      17.25      14.70      17.76
C      17.21      13.49      17.04
N      18.28      11.97      15.37
N      16.18      15.06      18.65
O      27.40      17.46      16.31
O      21.89      21.15      17.26
O      18.41      16.74      19.65
O      18.29      17.95      17.77
O      15.62      16.23      18.57
O      23.54      20.88      18.76
O      26.85      20.15      16.11
O      25.04      21.43      16.45
O      26.54      17.32      14.23
O      14.77      13.14      17.10
O      15.77      14.21      19.55
O      16.10      11.32      16.88
O      19.34      11.23      15.27
O      17.32      11.82      14.50
O      23.71      14.87      14.71
O      25.59      14.93      15.94
C      16.00      12.63      17.07
F      20.09      17.39      15.83
